 vasp.5.4.4.18Apr17-6-g9f103f2a35 (build Jul  5 2023 12:24:19) complex
 executed on NVIDIA22.7_CrayMPICH date 2023.10.17  09:01:13

 INCAR:
 POTCAR:   PAW_PBE C 08Apr2002

 POTCAR:   PAW_PBE C 08Apr2002

 PAW_PBE C 08Apr2002                    :

 POSCAR: generated by phonopy
  positions in direct lattice
 exchange correlation table for  LEXCH =        8
   RHO(1)=    0.500       N(1)  =     2000
   RHO(2)=  100.500       N(2)  =     4000

 ion  position               nearest neighbor table
   1  0.378  0.378  0.378-  25 1.52   9 1.52  33 1.52  17 1.52
   2  0.878  0.378  0.378-  26 1.52  10 1.52  34 1.52  18 1.52
   3  0.378  0.878  0.378-  27 1.52  11 1.52  35 1.52  19 1.52
   4  0.878  0.878  0.378-  28 1.52  12 1.52  36 1.52  20 1.52
   5  0.378  0.378  0.878-  29 1.52  13 1.52  37 1.52  21 1.52
   6  0.878  0.378  0.878-  30 1.52  14 1.52  38 1.52  22 1.52
   7  0.378  0.878  0.878-  31 1.52  15 1.52  39 1.52  23 1.52
   8  0.878  0.878  0.878-  32 1.52  16 1.52  40 1.52  24 1.52
   9  0.503  0.253  0.503-   1 1.52  45 1.52  50 1.52  62 1.52
  10  0.003  0.253  0.503-   2 1.52  46 1.52  49 1.52  61 1.52
  11  0.503  0.753  0.503-   3 1.52  47 1.52  52 1.52  64 1.52
  12  0.003  0.753  0.503-   4 1.52  48 1.52  51 1.52  63 1.52
  13  0.503  0.253  0.003-   5 1.52  41 1.52  54 1.52  58 1.52
  14  0.003  0.253  0.003-   6 1.52  42 1.52  53 1.52  57 1.52
  15  0.503  0.753  0.003-   7 1.52  43 1.52  56 1.52  60 1.52
  16  0.003  0.753  0.003-   8 1.52  44 1.52  55 1.52  59 1.52
  17  0.253  0.253  0.253-   1 1.52  41 1.52  49 1.52  57 1.52
  18  0.753  0.253  0.253-   2 1.52  42 1.52  50 1.52  58 1.52
  19  0.253  0.753  0.253-   3 1.52  43 1.52  51 1.52  59 1.52
  20  0.753  0.753  0.253-   4 1.52  44 1.52  52 1.52  60 1.52
  21  0.253  0.253  0.753-   5 1.52  45 1.52  53 1.52  61 1.52
  22  0.753  0.253  0.753-   6 1.52  46 1.52  54 1.52  62 1.52
  23  0.253  0.753  0.753-   7 1.52  47 1.52  55 1.52  63 1.52
  24  0.753  0.753  0.753-   8 1.52  48 1.52  56 1.52  64 1.52
  25  0.503  0.503  0.253-   1 1.52  43 1.52  58 1.52  52 1.52
  26  0.003  0.503  0.253-   2 1.52  44 1.52  57 1.52  51 1.52
  27  0.503  0.003  0.253-   3 1.52  41 1.52  60 1.52  50 1.52
  28  0.003  0.003  0.253-   4 1.52  42 1.52  59 1.52  49 1.52
  29  0.503  0.503  0.753-   5 1.52  47 1.52  62 1.52  56 1.52
  30  0.003  0.503  0.753-   6 1.52  48 1.52  61 1.52  55 1.52
  31  0.503  0.003  0.753-   7 1.52  45 1.52  64 1.52  54 1.52
  32  0.003  0.003  0.753-   8 1.52  46 1.52  63 1.52  53 1.52
  33  0.253  0.503  0.503-   1 1.52  51 1.52  61 1.52  47 1.52
  34  0.753  0.503  0.503-   2 1.52  52 1.52  62 1.52  48 1.52
  35  0.253  0.003  0.503-   3 1.52  49 1.52  63 1.52  45 1.52
  36  0.753  0.003  0.503-   4 1.52  50 1.52  64 1.52  46 1.52
  37  0.253  0.503  0.003-   5 1.52  55 1.52  57 1.52  43 1.52
  38  0.753  0.503  0.003-   6 1.52  56 1.52  58 1.52  44 1.52
  39  0.253  0.003  0.003-   7 1.52  53 1.52  59 1.52  41 1.52
  40  0.753  0.003  0.003-   8 1.52  54 1.52  60 1.52  42 1.52
  41  0.378  0.128  0.128-  17 1.52  27 1.52  13 1.52  39 1.52
  42  0.878  0.128  0.128-  18 1.52  28 1.52  14 1.52  40 1.52
  43  0.378  0.628  0.128-  19 1.52  25 1.52  15 1.52  37 1.52
  44  0.878  0.628  0.128-  20 1.52  26 1.52  16 1.52  38 1.52
  45  0.378  0.128  0.628-  21 1.52  31 1.52   9 1.52  35 1.52
  46  0.878  0.128  0.628-  22 1.52  32 1.52  10 1.52  36 1.52
  47  0.378  0.628  0.628-  23 1.52  29 1.52  11 1.52  33 1.52
  48  0.878  0.628  0.628-  24 1.52  30 1.52  12 1.52  34 1.52
  49  0.128  0.128  0.378-  17 1.52  10 1.52  35 1.52  28 1.52
  50  0.628  0.128  0.378-  18 1.52   9 1.52  36 1.52  27 1.52
  51  0.128  0.628  0.378-  19 1.52  12 1.52  33 1.52  26 1.52
  52  0.628  0.628  0.378-  20 1.52  11 1.52  34 1.52  25 1.52
  53  0.128  0.128  0.878-  21 1.52  14 1.52  39 1.52  32 1.52
  54  0.628  0.128  0.878-  22 1.52  13 1.52  40 1.52  31 1.52
  55  0.128  0.628  0.878-  23 1.52  16 1.52  37 1.52  30 1.52
  56  0.628  0.628  0.878-  24 1.52  15 1.52  38 1.52  29 1.52
  57  0.128  0.378  0.128-  17 1.52  26 1.52  37 1.52  14 1.52
  58  0.628  0.378  0.128-  18 1.52  25 1.52  38 1.52  13 1.52
  59  0.128  0.878  0.128-  19 1.52  28 1.52  39 1.52  16 1.52
  60  0.628  0.878  0.128-  20 1.52  27 1.52  40 1.52  15 1.52
  61  0.128  0.378  0.628-  21 1.52  30 1.52  33 1.52  10 1.52
  62  0.628  0.378  0.628-  22 1.52  29 1.52  34 1.52   9 1.52
  63  0.128  0.878  0.628-  23 1.52  32 1.52  35 1.52  12 1.52
  64  0.628  0.878  0.628-  24 1.52  31 1.52  36 1.52  11 1.52

  LATTYP: Found a simple cubic cell.
 ALAT       =     7.0237740000

  Lattice vectors:

 A1 = (   7.0237740000,   0.0000000000,   0.0000000000)
 A2 = (   0.0000000000,   7.0237740000,   0.0000000000)
 A3 = (   0.0000000000,   0.0000000000,   7.0237740000)

Analysis of symmetry for initial positions (statically):
 Subroutine PRICEL returns following result:

  LATTYP: Found a face centered cubic cell.
 ALAT       =     3.5118940238

[...]

  32 primitive cells build up your supercell.

 Routine SETGRP: Setting up the symmetry group for a
 simple cubic supercell.

 Subroutine GETGRP returns: Found 48 space group operations
 (whereof  6 operations were pure point group operations)
 out of a pool of 48 trial point group operations.

The static configuration has the point symmetry C_3v.
 The point group associated with its full space group is O_h .

Analysis of symmetry for dynamics (positions and initial velocities):
 Subroutine PRICEL returns following result:

[...]

The dynamic configuration has the point symmetry C_3v.
 The point group associated with its full space group is O_h .

Analysis of structural, dynamic, and magnetic symmetry:
 Subroutine PRICEL returns following result:

[...]

The magnetic configuration has the point symmetry C_3v.
 The point group associated with its full space group is O_h .

 Subroutine INISYM returns: Found 48 space group operations
 (whereof  6 operations are pure point group operations),
 and found    32 'primitive' translations

 KPOINTS: kpt_density=500

Automatic generation of k-mesh.
Space group operators:
 irot       det(A)        alpha          n_x          n_y          n_z        tau_x        tau_y        tau_z
    1     1.000000     0.000000     1.000000     0.000000     0.000000     0.000000     0.000000    -0.000000
    2     1.000000   120.000000    -0.577350    -0.577350    -0.577350     0.000000     0.000000    -0.000000
    3     1.000000   120.000000     0.577350     0.577350     0.577350     0.000000     0.000000    -0.000000
    4    -1.000000   180.000000     0.000000    -0.707107     0.707107     0.000000     0.000000    -0.000000
    5    -1.000000   180.000000     0.707107    -0.707107     0.000000     0.000000     0.000000    -0.000000
    6    -1.000000   180.000000     0.707107     0.000000    -0.707107     0.000000     0.000000    -0.000000
    7    -1.000000     0.000000     1.000000     0.000000     0.000000     0.381697     0.381697    -0.368305
    8    -1.000000   120.000000    -0.577350    -0.577350    -0.577350     0.381697     0.381697    -0.368305
    9    -1.000000   120.000000     0.577350     0.577350     0.577350     0.381697     0.381697    -0.368305
   10     1.000000    90.000000     0.000000     0.000000    -1.000000     0.381697     0.375001    -0.375001
   11    -1.000000    90.000000     0.000000     0.000000    -1.000000     0.250001     0.006696    -0.243306
   12     1.000000   180.000000     0.000000     0.707107     0.707107     0.381697     0.375001    -0.375001
   13    -1.000000   180.000000     0.000000     0.707107     0.707107     0.250001     0.006696    -0.243306
   14     1.000000    90.000000     0.000000     1.000000     0.000000     0.381697     0.375001    -0.375001
   15    -1.000000    90.000000     0.000000     1.000000     0.000000     0.250001     0.006696    -0.243306
   16     1.000000   180.000000     0.000000     0.000000     1.000000     0.256697     0.256697    -0.500001
   17    -1.000000   180.000000     0.000000     0.000000     1.000000     0.375001     0.375001    -0.368305
   18     1.000000   120.000000    -0.577350     0.577350     0.577350     0.256697     0.256697    -0.500001
   19    -1.000000   120.000000    -0.577350     0.577350     0.577350     0.375001     0.375001    -0.368305
   20     1.000000   120.000000    -0.577350     0.577350    -0.577350     0.256697     0.256697    -0.500001
   21    -1.000000   120.000000    -0.577350     0.577350    -0.577350     0.375001     0.375001    -0.368305
   22     1.000000    90.000000     0.000000     0.000000     1.000000     0.375001     0.381697    -0.375001
   23    -1.000000    90.000000     0.000000     0.000000     1.000000     0.256697     0.250001    -0.493305
   24     1.000000    90.000000    -1.000000     0.000000     0.000000     0.375001     0.381697    -0.375001
   25    -1.000000    90.000000    -1.000000     0.000000     0.000000     0.256697     0.250001    -0.493305
   26     1.000000   180.000000     0.707107     0.000000     0.707107     0.375001     0.381697    -0.375001
   27    -1.000000   180.000000     0.707107     0.000000     0.707107     0.256697     0.250001    -0.493305
   28     1.000000   120.000000     0.577350    -0.577350     0.577350     0.250001     0.006696    -0.243306
   29    -1.000000   120.000000     0.577350    -0.577350     0.577350     0.381697     0.375001    -0.375001
   30     1.000000   120.000000    -0.577350    -0.577350     0.577350     0.250001     0.006696    -0.243306
   31    -1.000000   120.000000    -0.577350    -0.577350     0.577350     0.381697     0.375001    -0.375001
   32     1.000000   180.000000     1.000000     0.000000     0.000000     0.250001     0.006696    -0.243306
   33    -1.000000   180.000000     1.000000     0.000000     0.000000     0.381697     0.375001    -0.375001
   34     1.000000    90.000000     0.000000    -1.000000     0.000000     0.375001     0.375001    -0.368305
   35    -1.000000    90.000000     0.000000    -1.000000     0.000000     0.256697     0.256697    -0.500001
   36     1.000000   180.000000     0.707107     0.707107     0.000000     0.375001     0.375001    -0.368305
   37    -1.000000   180.000000     0.707107     0.707107     0.000000     0.256697     0.256697    -0.500001
   38     1.000000    90.000000     1.000000     0.000000     0.000000     0.375001     0.375001    -0.368305
   39    -1.000000    90.000000     1.000000     0.000000     0.000000     0.256697     0.256697    -0.500001
   40     1.000000   120.000000     0.577350    -0.577350    -0.577350     0.256697     0.250001    -0.493305
   41    -1.000000   120.000000     0.577350    -0.577350    -0.577350     0.375001     0.381697    -0.375001
   42     1.000000   180.000000     0.000000     1.000000     0.000000     0.256697     0.250001    -0.493305
   43    -1.000000   180.000000     0.000000     1.000000     0.000000     0.375001     0.381697    -0.375001
   44     1.000000   120.000000     0.577350     0.577350    -0.577350     0.256697     0.250001    -0.493305
   45    -1.000000   120.000000     0.577350     0.577350    -0.577350     0.375001     0.381697    -0.375001
[...]
 64Z    -0.071737    0.041580    0.086592    0.071737   -0.041580    0.086592    1.726296    0.784584    1.651298   -1.726296   -0.784584    1.651298    0.071737    0.041580    0.086592   -0.071737   -0.041580    0.086592   -1.726296    0.784584    1.651298    1.726296   -0.784584    1.651298   -0.036998    0.098670   -0.164607    0.232149    0.232149    0.358660    3.044443    3.044443   10.149009    0.098670   -0.036998   -0.164607    0.233080    0.124887    0.097815    0.032177    0.032177   -0.033272    0.098549    0.098549   -0.063892    0.124887    0.233080    0.097815    0.032177   -0.032177   -0.033272    0.233080   -0.124887    0.097815    0.124887   -0.233080    0.097815    0.098549   -0.098549   -0.063892    0.232149   -0.232149    0.358660   -0.036998   -0.098670   -0.164607    0.098670    0.036998   -0.164607    3.044443   -3.044443   10.149009   -0.233080    0.124887    0.097815   -0.032177    0.032177   -0.033272   -0.098549    0.098549   -0.063892   -0.124887    0.233080    0.097815    0.036998    0.098670   -0.164607   -0.232149    0.232149    0.358660   -3.044443    3.044443   10.149009   -0.098670   -0.036998   -0.164607   -0.232149   -0.232149    0.358660    0.036998   -0.098670   -0.164607   -0.098670    0.036998   -0.164607   -3.044443   -3.044443   10.149009   -0.032177   -0.032177   -0.033272   -0.233080   -0.124887    0.097815   -0.124887   -0.233080    0.097815   -0.098549   -0.098549   -0.063892    0.041408   -0.041408   -0.069980    0.041408    0.041408   -0.069980   -0.041408   -0.041408   -0.069980   -0.041408    0.041408   -0.069980    0.784443   -0.784443   -1.465369    0.784443    0.784443   -1.465369   -0.784443   -0.784443   -1.465369   -0.784443    0.784443   -1.465369   -0.041580    0.071737    0.086592   -0.784584   -1.726296    1.651298    0.041580   -0.071737    0.086592    0.784584    1.726296    1.651298   -0.041580   -0.071737    0.086592   -0.784584    1.726296    1.651298    0.041580    0.071737    0.086592    0.784584   -1.726296    1.651298    0.000000   -0.000000    0.053340    0.000000    0.000000    0.134174   -0.000000    0.000000    0.134174    0.000000   -0.000000    0.173172    0.000000   -0.000000   -0.586278   -0.000000    0.000000    0.099214   -0.000000    0.000000    0.099214    0.000000   -0.000000  -48.976414

 Eigenvectors and eigenvalues of the dynamical matrix

   1 f  =   41.330872 THz   259.689528 2PiTHz 1378.649451 cm-1   170.930808 meV
             X         Y         Z           dx          dy          dz
      2.657431  2.657431  2.657431     0.133097    0.031982    0.089786
      6.169318  2.657431  2.657431    -0.133097    0.031982    0.089786
      2.657431  6.169318  2.657431     0.133097   -0.031982    0.089786
      6.169318  6.169318  2.657431    -0.133097   -0.031982    0.089786
      2.657431  2.657431  6.169318     0.133097    0.031982   -0.089786
      6.169318  2.657431  6.169318    -0.133097    0.031982   -0.089786
      2.657431  6.169318  6.169318     0.133097   -0.031982   -0.089786
      6.169318  6.169318  6.169318    -0.133097   -0.031982   -0.089786
      3.535399  1.779459  3.535399    -0.047154   -0.026790   -0.065133
      0.023512  1.779459  3.535399     0.047154   -0.026790   -0.065133
      3.535399  5.291346  3.535399    -0.047154    0.026790   -0.065133
      0.023512  5.291346  3.535399     0.047154    0.026790   -0.065133
      3.535399  1.779459  0.023512    -0.047154   -0.026790    0.065133
      0.023512  1.779459  0.023512     0.047154   -0.026790    0.065133
      3.535399  5.291346  0.023512    -0.047154    0.026790    0.065133
      0.023512  5.291346  0.023512     0.047154    0.026790    0.065133
      1.779459  1.779459  1.779459    -0.141074   -0.026790   -0.061844
      5.291346  1.779459  1.779459     0.141074   -0.026790   -0.061844
      1.779459  5.291346  1.779459    -0.141074    0.026790   -0.061844
      5.291346  5.291346  1.779459     0.141074    0.026790   -0.061844
      1.779459  1.779459  5.291346    -0.141074   -0.026790    0.061844
      5.291346  1.779459  5.291346     0.141074   -0.026790    0.061844
      1.779459  5.291346  5.291346    -0.141074    0.026790    0.061844
      5.291346  5.291346  5.291346     0.141074    0.026790    0.061844
      3.535399  3.535399  1.779459    -0.047154   -0.018439   -0.061844
      0.023512  3.535399  1.779459     0.047154   -0.018439   -0.061844
      3.535399  0.023512  1.779459    -0.047154    0.018439   -0.061844
      0.023512  0.023512  1.779459     0.047154    0.018439   -0.061844
      3.535399  3.535399  5.291346    -0.047154   -0.018439    0.061844
      0.023512  3.535399  5.291346     0.047154   -0.018439    0.061844
      3.535399  0.023512  5.291346    -0.047154    0.018439    0.061844
      0.023512  0.023512  5.291346     0.047154    0.018439    0.061844
      1.779459  3.535399  3.535399    -0.141074   -0.018439   -0.065133
      5.291346  3.535399  3.535399     0.141074   -0.018439   -0.065133
      1.779459  0.023512  3.535399    -0.141074    0.018439   -0.065133
      5.291346  0.023512  3.535399     0.141074    0.018439   -0.065133
      1.779459  3.535399  0.023512    -0.141074   -0.018439    0.065133
      5.291346  3.535399  0.023512     0.141074   -0.018439    0.065133
      1.779459  0.023512  0.023512    -0.141074    0.018439    0.065133
      5.291346  0.023512  0.023512     0.141074    0.018439    0.065133
      2.657431  0.901487  0.901487     0.133097    0.005905   -0.002326
      6.169318  0.901487  0.901487    -0.133097    0.005905   -0.002326
      2.657431  4.413374  0.901487     0.133097   -0.005905   -0.002326
      6.169318  4.413374  0.901487    -0.133097   -0.005905   -0.002326
      2.657431  0.901487  4.413374     0.133097    0.005905    0.002326
      6.169318  0.901487  4.413374    -0.133097    0.005905    0.002326
      2.657431  4.413374  4.413374     0.133097   -0.005905    0.002326
      6.169318  4.413374  4.413374    -0.133097   -0.005905    0.002326
      0.901487  0.901487  2.657431     0.066411    0.005905    0.089786
      4.413374  0.901487  2.657431    -0.066411    0.005905    0.089786
      0.901487  4.413374  2.657431     0.066411   -0.005905    0.089786
      4.413374  4.413374  2.657431    -0.066411   -0.005905    0.089786
      0.901487  0.901487  6.169318     0.066411    0.005905   -0.089786
      4.413374  0.901487  6.169318    -0.066411    0.005905   -0.089786
      0.901487  4.413374  6.169318     0.066411   -0.005905   -0.089786
      4.413374  4.413374  6.169318    -0.066411   -0.005905   -0.089786
      0.901487  2.657431  0.901487     0.066411    0.031982   -0.002326
      4.413374  2.657431  0.901487    -0.066411    0.031982   -0.002326
      0.901487  6.169318  0.901487     0.066411   -0.031982   -0.002326
      4.413374  6.169318  0.901487    -0.066411   -0.031982   -0.002326
      0.901487  2.657431  4.413374     0.066411    0.031982    0.002326
      4.413374  2.657431  4.413374    -0.066411    0.031982    0.002326
      0.901487  6.169318  4.413374     0.066411   -0.031982    0.002326
      4.413374  6.169318  4.413374    -0.066411   -0.031982    0.002326

[...]

 192 f  =    0.000004 THz     0.000025 2PiTHz    0.000134 cm-1     0.000017 meV
             X         Y         Z           dx          dy          dz
      2.657431  2.657431  2.657431     0.012242    0.124319   -0.004463
      6.169318  2.657431  2.657431     0.012242    0.124319   -0.004463
      2.657431  6.169318  2.657431     0.012242    0.124319   -0.004463
      6.169318  6.169318  2.657431     0.012242    0.124319   -0.004463
      2.657431  2.657431  6.169318     0.012242    0.124319   -0.004463
      6.169318  2.657431  6.169318     0.012242    0.124319   -0.004463
      2.657431  6.169318  6.169318     0.012242    0.124319   -0.004463
      6.169318  6.169318  6.169318     0.012242    0.124319   -0.004463
      3.535399  1.779459  3.535399     0.012242    0.124319   -0.004463
      0.023512  1.779459  3.535399     0.012242    0.124319   -0.004463
      3.535399  5.291346  3.535399     0.012242    0.124319   -0.004463
      0.023512  5.291346  3.535399     0.012242    0.124319   -0.004463
      3.535399  1.779459  0.023512     0.012242    0.124319   -0.004463
      0.023512  1.779459  0.023512     0.012242    0.124319   -0.004463
      3.535399  5.291346  0.023512     0.012242    0.124319   -0.004463
      0.023512  5.291346  0.023512     0.012242    0.124319   -0.004463
      1.779459  1.779459  1.779459     0.012242    0.124319   -0.004463
      5.291346  1.779459  1.779459     0.012242    0.124319   -0.004463
      1.779459  5.291346  1.779459     0.012242    0.124319   -0.004463
      5.291346  5.291346  1.779459     0.012242    0.124319   -0.004463
      1.779459  1.779459  5.291346     0.012242    0.124319   -0.004463
      5.291346  1.779459  5.291346     0.012242    0.124319   -0.004463
      1.779459  5.291346  5.291346     0.012242    0.124319   -0.004463
      5.291346  5.291346  5.291346     0.012242    0.124319   -0.004463
      3.535399  3.535399  1.779459     0.012242    0.124319   -0.004463
      0.023512  3.535399  1.779459     0.012242    0.124319   -0.004463
      3.535399  0.023512  1.779459     0.012242    0.124319   -0.004463
      0.023512  0.023512  1.779459     0.012242    0.124319   -0.004463
      3.535399  3.535399  5.291346     0.012242    0.124319   -0.004463
      0.023512  3.535399  5.291346     0.012242    0.124319   -0.004463
      3.535399  0.023512  5.291346     0.012242    0.124319   -0.004463
      0.023512  0.023512  5.291346     0.012242    0.124319   -0.004463
      1.779459  3.535399  3.535399     0.012242    0.124319   -0.004463
      5.291346  3.535399  3.535399     0.012242    0.124319   -0.004463
      1.779459  0.023512  3.535399     0.012242    0.124319   -0.004463
      5.291346  0.023512  3.535399     0.012242    0.124319   -0.004463
      1.779459  3.535399  0.023512     0.012242    0.124319   -0.004463
      5.291346  3.535399  0.023512     0.012242    0.124319   -0.004463
      1.779459  0.023512  0.023512     0.012242    0.124319   -0.004463
      5.291346  0.023512  0.023512     0.012242    0.124319   -0.004463
      2.657431  0.901487  0.901487     0.012242    0.124319   -0.004463
      6.169318  0.901487  0.901487     0.012242    0.124319   -0.004463
      2.657431  4.413374  0.901487     0.012242    0.124319   -0.004463
      6.169318  4.413374  0.901487     0.012242    0.124319   -0.004463
      2.657431  0.901487  4.413374     0.012242    0.124319   -0.004463
      6.169318  0.901487  4.413374     0.012242    0.124319   -0.004463
      2.657431  4.413374  4.413374     0.012242    0.124319   -0.004463
      6.169318  4.413374  4.413374     0.012242    0.124319   -0.004463
      0.901487  0.901487  2.657431     0.012242    0.124319   -0.004463
      4.413374  0.901487  2.657431     0.012242    0.124319   -0.004463
      0.901487  4.413374  2.657431     0.012242    0.124319   -0.004463
      4.413374  4.413374  2.657431     0.012242    0.124319   -0.004463
      0.901487  0.901487  6.169318     0.012242    0.124319   -0.004463
      4.413374  0.901487  6.169318     0.012242    0.124319   -0.004463
      0.901487  4.413374  6.169318     0.012242    0.124319   -0.004463
      4.413374  4.413374  6.169318     0.012242    0.124319   -0.004463
      0.901487  2.657431  0.901487     0.012242    0.124319   -0.004463
      4.413374  2.657431  0.901487     0.012242    0.124319   -0.004463
      0.901487  6.169318  0.901487     0.012242    0.124319   -0.004463
      4.413374  6.169318  0.901487     0.012242    0.124319   -0.004463
      0.901487  2.657431  4.413374     0.012242    0.124319   -0.004463
      4.413374  2.657431  4.413374     0.012242    0.124319   -0.004463
      0.901487  6.169318  4.413374     0.012242    0.124319   -0.004463
      4.413374  6.169318  4.413374     0.012242    0.124319   -0.004463

 ELASTIC MODULI CONTR FROM IONIC RELAXATION (kBar)
 Direction    XX          YY          ZZ          XY          YZ          ZX
 XX          -0.0000     -0.0000     -0.0000     -0.0000      0.0000     -0.0000
 YY          -0.0000     -0.0000     -0.0000     -0.0000     -0.0000      0.0000
 ZZ          -0.0000     -0.0000     -0.0000      0.0000     -0.0000     -0.0000
 XY          -0.0000     -0.0000      0.0000   -143.1267      0.0000      0.0000
 YZ           0.0000     -0.0000     -0.0000      0.0000   -143.1267     -0.0000
 ZX          -0.0000      0.0000     -0.0000      0.0000     -0.0000   -143.1267

 total charge

[...]

 magnetization (x)

# of ion       s       p       d       tot
    1       -0.000   0.000   0.000  -0.000
    2       -0.000   0.000   0.000  -0.000
    3       -0.000   0.000   0.000  -0.000
    4       -0.000   0.000   0.000  -0.000
    5       -0.000   0.000   0.000  -0.000
    6       -0.000   0.000   0.000  -0.000
    7       -0.000   0.000   0.000  -0.000
    8       -0.000   0.000   0.000  -0.000
    9       -0.000   0.000   0.000  -0.000
   10       -0.000   0.000   0.000  -0.000
   11       -0.000   0.000   0.000  -0.000
   12       -0.000   0.000   0.000  -0.000
   13       -0.000   0.000   0.000  -0.000
   14       -0.000   0.000   0.000  -0.000
   15       -0.000   0.000   0.000  -0.000
   16       -0.000   0.000   0.000  -0.000
   17       -0.000   0.000   0.000  -0.000
   18       -0.000   0.000   0.000  -0.000
   19       -0.000   0.000   0.000  -0.000
   20       -0.000   0.000   0.000  -0.000
   21       -0.000   0.000   0.000  -0.000
   22       -0.000   0.000   0.000  -0.000
   23       -0.000   0.000   0.000  -0.000
   24       -0.000   0.000   0.000  -0.000
   25       -0.000   0.000   0.000  -0.000
   26       -0.000   0.000   0.000  -0.000
   27       -0.000   0.000   0.000  -0.000
   28       -0.000   0.000   0.000  -0.000
   29       -0.000   0.000   0.000  -0.000
   30       -0.000   0.000   0.000  -0.000
   31       -0.000   0.000   0.000  -0.000
   32       -0.000   0.000   0.000  -0.000
   33       -0.000   0.000   0.000  -0.000
   34       -0.000   0.000   0.000  -0.000
   35       -0.000   0.000   0.000  -0.000
   36       -0.000   0.000   0.000  -0.000
   37       -0.000   0.000   0.000  -0.000
   38       -0.000   0.000   0.000  -0.000
   39       -0.000   0.000   0.000  -0.000
   40       -0.000   0.000   0.000  -0.000
   41       -0.000   0.000   0.000  -0.000
   42       -0.000   0.000   0.000  -0.000
   43       -0.000   0.000   0.000  -0.000
   44       -0.000   0.000   0.000  -0.000
   45       -0.000   0.000   0.000  -0.000
   46       -0.000   0.000   0.000  -0.000
   47       -0.000   0.000   0.000  -0.000
   48       -0.000   0.000   0.000  -0.000
   49       -0.000   0.000   0.000  -0.000
   50       -0.000   0.000   0.000  -0.000
   51       -0.000   0.000   0.000  -0.000
   52       -0.000   0.000   0.000  -0.000
   53       -0.000   0.000   0.000  -0.000
   54       -0.000   0.000   0.000  -0.000
   55       -0.000   0.000   0.000  -0.000
   56       -0.000   0.000   0.000  -0.000
   57       -0.000   0.000   0.000  -0.000
   58       -0.000   0.000   0.000  -0.000
   59       -0.000   0.000   0.000  -0.000
   60       -0.000   0.000   0.000  -0.000
   61       -0.000   0.000   0.000  -0.000
   62       -0.000   0.000   0.000  -0.000
   63       -0.000   0.000   0.000  -0.000
   64       -0.000   0.000   0.000  -0.000
tot         -0.000   0.000   0.000  -0.000

 BZINTS: Fermi energy: 10.537548;256.000000 electrons
         Band energy: 301.882245;  BLOECHL correction:  0.000000