 vasp.5.4.4.18Apr17-6-g9f103f2a35 (build Jul  5 2023 12:24:19) complex
 executed on NVIDIA22.7_CrayMPICH date 2023.10.17  09:01:58

 INCAR:
 POTCAR:   PAW_PBE C 08Apr2002

 POTCAR:   PAW_PBE C 08Apr2002

 PAW_PBE C 08Apr2002                    :

 POSCAR: generated by phonopy
  positions in direct lattice
 exchange correlation table for  LEXCH =        8
   RHO(1)=    0.500       N(1)  =     2000
   RHO(2)=  100.500       N(2)  =     4000

 ion  position               nearest neighbor table
   1  0.000  0.000  0.125-  19 1.42  20 1.42  17 1.42
   2  0.500  0.000  0.125-  20 1.42  19 1.42  18 1.42
   3  0.000  0.500  0.125-  17 1.42  18 1.42  19 1.42
   4  0.500  0.500  0.125-  18 1.42  17 1.42  20 1.42
   5  0.000  0.000  0.625-  23 1.42  24 1.42  21 1.42
   6  0.500  0.000  0.625-  24 1.42  23 1.42  22 1.42
   7  0.000  0.500  0.625-  21 1.42  22 1.42  23 1.42
   8  0.500  0.500  0.625-  22 1.42  21 1.42  24 1.42
   9  0.000  0.000  0.375-  26 1.42  25 1.42  28 1.42
  10  0.500  0.000  0.375-  25 1.42  26 1.42  27 1.42
  11  0.000  0.500  0.375-  28 1.42  27 1.42  26 1.42
  12  0.500  0.500  0.375-  27 1.42  28 1.42  25 1.42
  13  0.000  0.000  0.875-  30 1.42  29 1.42  32 1.42
  14  0.500  0.000  0.875-  29 1.42  30 1.42  31 1.42
  15  0.000  0.500  0.875-  32 1.42  31 1.42  30 1.42
  16  0.500  0.500  0.875-  31 1.42  32 1.42  29 1.42
  17  0.167  0.333  0.125-   3 1.42   4 1.42   1 1.42
  18  0.667  0.333  0.125-   4 1.42   3 1.42   2 1.42
  19  0.167  0.833  0.125-   1 1.42   2 1.42   3 1.42
  20  0.667  0.833  0.125-   2 1.42   1 1.42   4 1.42
  21  0.167  0.333  0.625-   7 1.42   8 1.42   5 1.42
  22  0.667  0.333  0.625-   8 1.42   7 1.42   6 1.42
  23  0.167  0.833  0.625-   5 1.42   6 1.42   7 1.42
  24  0.667  0.833  0.625-   6 1.42   5 1.42   8 1.42
  25  0.333  0.167  0.375-  10 1.42   9 1.42  12 1.42
  26  0.833  0.167  0.375-   9 1.42  10 1.42  11 1.42
  27  0.333  0.667  0.375-  12 1.42  11 1.42  10 1.42
  28  0.833  0.667  0.375-  11 1.42  12 1.42   9 1.42
  29  0.333  0.167  0.875-  14 1.42  13 1.42  16 1.42
  30  0.833  0.167  0.875-  13 1.42  14 1.42  15 1.42
  31  0.333  0.667  0.875-  16 1.42  15 1.42  14 1.42
  32  0.833  0.667  0.875-  15 1.42  16 1.42  13 1.42

  LATTYP: Found a hexagonal cell.
 ALAT       =     4.9345820464
 C/A-ratio  =     3.1626074616

  Lattice vectors:

 A1 = (   4.9345820000,   0.0000000000,   0.0000000000)
 A2 = (  -2.4672920000,   4.2734740000,   0.0000000000)
 A3 = (   0.0000000000,   0.0000000000,  15.6061460000)

Analysis of symmetry for initial positions (statically):
 Subroutine PRICEL returns following result:

[...]

   8 primitive cells build up your supercell.

 Routine SETGRP: Setting up the symmetry group for a
 hexagonal supercell.

 Subroutine GETGRP returns: Found 24 space group operations
 (whereof 12 operations were pure point group operations)
 out of a pool of 24 trial point group operations.

The static configuration has the point symmetry D_3d.
 The point group associated with its full space group is D_6h.

Analysis of symmetry for dynamics (positions and initial velocities):
 Subroutine PRICEL returns following result:

[...]

The dynamic configuration has the point symmetry D_3d.
 The point group associated with its full space group is D_6h.

Analysis of structural, dynamic, and magnetic symmetry:
 Subroutine PRICEL returns following result:

[...]

The magnetic configuration has the point symmetry D_3d.
 The point group associated with its full space group is D_6h.

 Subroutine INISYM returns: Found 24 space group operations
 (whereof 12 operations are pure point group operations),
 and found     8 'primitive' translations

 KPOINTS: kpt_density=500

Automatic generation of k-mesh.
Space group operators:
 irot       det(A)        alpha          n_x          n_y          n_z        tau_x        tau_y        tau_z
    1     1.000000     0.000000     1.000000     0.000000     0.000000     0.000000     0.000000     0.000000
    2    -1.000000     0.000000     1.000000     0.000000     0.000000     0.000000     0.000000     0.000000
    3     1.000000   120.000000     0.000000     0.000000    -1.000000     0.000000     0.000000     0.000000
    4    -1.000000   120.000000     0.000000     0.000000    -1.000000     0.000000     0.000000     0.000000
    5     1.000000   120.000000     0.000000     0.000000     1.000000     0.000000     0.000000     0.000000
    6    -1.000000   120.000000     0.000000     0.000000     1.000000     0.000000     0.000000     0.000000
    7     1.000000   180.000000     1.000000     0.000000     0.000000     0.000000     0.000000     0.000000
    8    -1.000000   180.000000     1.000000     0.000000     0.000000     0.000000     0.000000     0.000000
    9     1.000000   179.999999     0.500000    -0.866025     0.000000     0.000000     0.000000     0.000000
   10    -1.000000   179.999999     0.500000    -0.866025     0.000000     0.000000     0.000000     0.000000
   11     1.000000   180.000000    -0.500000    -0.866025     0.000000     0.000000     0.000000     0.000000
   12    -1.000000   180.000000    -0.500000    -0.866025     0.000000     0.000000     0.000000     0.000000
   13     1.000000    60.000000     0.000000     0.000000    -1.000000     0.000000     0.000000     0.250000
   14    -1.000000    60.000000     0.000000    -0.000000    -1.000000     0.000000     0.000000     0.250000
   15     1.000000   180.000000     0.000000     0.000000     1.000000     0.000000     0.000000     0.250000
   16    -1.000000   180.000000     0.000000     0.000000     1.000000     0.000000     0.000000     0.250000
   17     1.000000    60.000000     0.000000     0.000000     1.000000     0.000000     0.000000     0.250000
   18    -1.000000    60.000000     0.000000     0.000000     1.000000     0.000000     0.000000     0.250000
   19     1.000000   180.000000     0.866026    -0.500000     0.000000     0.000000     0.000000     0.250000
   20    -1.000000   180.000000     0.866026    -0.500000     0.000000     0.000000     0.000000     0.250000
   21     1.000000   180.000000     0.000000     1.000000     0.000000     0.000000     0.000000     0.250000
   22    -1.000000   180.000000     0.000000     1.000000     0.000000     0.000000     0.000000     0.250000
   23     1.000000   180.000000     0.866025     0.500000     0.000000     0.000000     0.000000     0.250000
   24    -1.000000   180.000000     0.866025     0.500000     0.000000     0.000000     0.000000     0.250000

 Subroutine IBZKPT returns following result:

 Found      4 irreducible k-points:

 Following reciprocal coordinates:
            Coordinates               Weight
  0.000000  0.000000  0.000000      1.000000
  0.250000  0.000000  0.000000      6.000000
  0.500000  0.000000  0.000000      3.000000
  0.250000  0.250000  0.000000      6.000000

 Following cartesian coordinates:
            Coordinates               Weight
  0.000000  0.000000  0.000000      1.000000
  0.050663  0.029250  0.000000      6.000000
  0.101326  0.058500  0.000000      3.000000
  0.050663  0.087751  0.000000      6.000000

 TETIRR: Found     10 inequivalent tetrahedra from       96

 Subroutine IBZKPT_HF returns following result:

 Found     16 k-points in 1st BZ
 the following     16 k-points will be used (e.g. in the exchange kernel)
 Following reciprocal coordinates:   # in IRBZ
  0.000000  0.000000  0.000000    0.06250000   1 t-inv F
  0.250000  0.000000  0.000000    0.06250000   2 t-inv F
  0.500000  0.000000  0.000000    0.06250000   3 t-inv F
  0.250000  0.250000  0.000000    0.06250000   4 t-inv F
 -0.250000 -0.000000 -0.000000    0.06250000   2 t-inv F
 -0.250000  0.250000  0.000000    0.06250000   2 t-inv F
  0.250000 -0.250000 -0.000000    0.06250000   2 t-inv F
  0.000000 -0.250000  0.000000    0.06250000   2 t-inv F
 -0.000000  0.250000 -0.000000    0.06250000   2 t-inv F
 -0.500000  0.500000  0.000000    0.06250000   3 t-inv F
  0.000000 -0.500000  0.000000    0.06250000   3 t-inv F
 -0.250000 -0.250000 -0.000000    0.06250000   4 t-inv F
 -0.500000  0.250000  0.000000    0.06250000   4 t-inv F
  0.500000 -0.250000 -0.000000    0.06250000   4 t-inv F
  0.250000 -0.500000  0.000000    0.06250000   4 t-inv F
 -0.250000  0.500000 -0.000000    0.06250000   4 t-inv F

 SYSTEM =  unknown system
 POSCAR =  generated by phonopy

 Startparameter for this run:
   NWRITE =      0    write-flag & timer
   PREC   = accura    normal or accurate (medium, high low for compatibility)
   ISTART =      0    job   : 0-new  1-cont  2-samecut
   ICHARG =      0    charge: 1-file 2-atom 10-const
   ISPIN  =      2    spin polarized calculation?
   LNONCOLLINEAR =      F non collinear calculations
   LSORBIT =      F    spin-orbit coupling
   INIWAV =      1    electr: 0-lowe 1-rand  2-diag
   LASPH  =      F    aspherical Exc in radial PAW
   METAGGA=      F    non-selfconsistent MetaGGA calc.

 Electronic Relaxation 1
   ENCUT  =  400.0 eV  29.40 Ry    5.42 a.u.   8.05  8.05 25.45*2*pi/ulx,y,z
   ENINI  =  400.0     initial cutoff
   ENAUG  =  644.9 eV  augmentation charge cutoff
   NELM   =     60;   NELMIN=  2; NELMDL= -5     # of ELM steps
   EDIFF  = 0.1E-05   stopping-criterion for ELM
   LREAL  =      F    real-space projection
   NLSPLINE    = F    spline interpolate recip. space projectors
   LCOMPAT=      F    compatible to vasp.4.4
   GGA_COMPAT  = T    GGA compatible to vasp.4.4-vasp.4.6
   LMAXPAW     = -100 max onsite density
   LMAXMIX     =    2 max onsite mixed and CHGCAR
   VOSKOWN=      0    Vosko Wilk Nusair interpolation
   ROPT   =    0.00000
 Ionic relaxation
   EDIFFG = 0.1E-03   stopping-criterion for IOM
   NSW    =      1    number of steps for IOM
   NBLOCK =      1;   KBLOCK =      1    inner block; outer block
   IBRION =      8    ionic relax: 0-MD 1-quasi-New 2-CG
   NFREE  =      0    steps in history (QN), initial steepest desc. (CG)
   ISIF   =      3    stress and relaxation
   IWAVPR =     11    prediction:  0-non 1-charg 2-wave 3-comb
   ISYM   =      2    0-nonsym 1-usesym 2-fastsym
   LCORR  =      T    Harris-Foulkes like correction to forces

   POTIM  = 0.0150    time-step for ionic-motion
   TEIN   =    0.0    initial temperature
   TEBEG  =    0.0;   TEEND  =   0.0 temperature during run
   SMASS  =  -3.00    Nose mass-parameter (am)
   estimated Nose-frequenzy (Omega)   =  0.10E-29 period in steps =****** mass=  -0.556E-27a.u.
   SCALEE = 1.0000    scale energy and forces
   NPACO  =    256;   APACO  = 16.0  distance and # of slots for P.C.
   PSTRESS=  250.0 pullay stress

  Mass of Ions in am
   POMASS =  12.01
  Ionic Valenz
   ZVAL   =   4.00
  Atomic Wigner-Seitz radii
  virtual crystal weights
   VCA    =   1.00
   NELECT =     128.0000    total number of electrons
   NUPDOWN=      -1.0000    fix difference up-down

 DOS related values:
   EMIN   =  10.00;   EMAX   =-10.00  energy-range for DOS
   EFERMI =   0.00
   ISMEAR =    -5;   SIGMA  =   0.01  broadening in eV -4-tet -1-fermi 0-gaus

 Electronic relaxation 2 (details)
   IALGO  =     68    algorithm
   LDIAG  =      T    sub-space diagonalisation (order eigenvalues)
   LSUBROT=      F    optimize rotation matrix (better conditioning)
[...]
 31Z    -0.000000   -0.000000   -0.006960   -0.000000    0.001333    0.008256   -0.001155   -0.000667    0.008256    0.001155   -0.000667    0.008256    0.000000    0.000000   -0.006960    0.000000   -0.001333    0.008256    0.001155    0.000667    0.008256   -0.001155    0.000667    0.008256    0.000000   -0.000000    0.001537   -0.000000    0.000000    0.001485   -0.000000    0.000000    0.001485   -0.000000   -0.000000    0.001485    0.000000    0.000000    1.255811   -0.000000   -0.000000    5.163913    0.000000   -0.000000    5.163913    0.000000    0.000000    5.163913   -0.000000    0.008270    0.002129    0.000000    0.000000    0.003666    0.007162   -0.004135    0.002129   -0.007162   -0.004135    0.002129    0.000000   -0.008270    0.002129    0.000000    0.000000    0.003666   -0.007162    0.004135    0.002129    0.007162    0.004135    0.002129    0.000000   -0.000000    0.001382   -0.000000   -0.000000    0.001382    0.000000   -0.000000    0.002775    0.000000    0.000000    0.001382    0.000000    0.000000   -0.795371   -0.000000   -0.000000   -0.795371    0.000000    0.000000  -14.430072   -0.000000   -0.000000   -0.795371
 32X     0.000409   -0.000000   -0.000000    0.020912   -0.000000    0.000000    0.010424   -0.005782    0.001509    0.010424    0.005782   -0.001509    0.000409   -0.000000    0.000000    0.020912   -0.000000   -0.000000    0.010424   -0.005782   -0.001509    0.010424    0.005782    0.001509    0.009099    0.000000    0.000000    0.003264   -0.000000    0.000000    0.000303    0.005079    0.000000    0.000303   -0.005079    0.000000    9.258058   -0.000006    0.000000    1.358063   -0.000000    0.000000   22.528468   -7.661677    0.000000   22.528461    7.661671    0.000000    0.006939   -0.000000    0.000000   -0.011156   -0.000000   -0.000000   -0.002644    0.004915   -0.007055   -0.002644   -0.004915    0.007055    0.006939   -0.000000   -0.000000   -0.011156   -0.000000    0.000000   -0.002644    0.004915    0.007055   -0.002644   -0.004915   -0.007055    0.003183    0.003757    0.000000    0.003183   -0.003757    0.000000    0.009691   -0.000000    0.000000    0.008661   -0.000000    0.000000   -1.024642    5.869399    0.000000   -1.024636   -5.869401    0.000000    9.141458    0.000001    0.000000  -62.868246    0.000015    0.000000
 32Y    -0.000000    0.013762    0.001742   -0.000000    0.020912   -0.000000   -0.005782    0.003747   -0.000871    0.005782    0.003747   -0.000871   -0.000000    0.013762   -0.001742   -0.000000    0.020912    0.000000   -0.005782    0.003747    0.000871    0.005782    0.003747    0.000871    0.000000   -0.002630    0.000000   -0.000000    0.003264    0.000000    0.005079    0.006167    0.000000   -0.005079    0.006167    0.000000   -0.000006   26.951941    0.000000   -0.000000    1.358063    0.000000   -7.661677   13.681531    0.000000    7.661671   13.681531    0.000000   -0.000000    0.006939   -0.000000   -0.000000    0.000194    0.008146    0.004915   -0.008319   -0.004073   -0.004915   -0.008319   -0.004073   -0.000000    0.006939    0.000000   -0.000000    0.000194   -0.008146    0.004915   -0.008319    0.004073   -0.004915   -0.008319    0.004073    0.003757    0.007522    0.000000   -0.003757    0.007522    0.000000   -0.000000    0.001014    0.000000   -0.000000    0.008661    0.000000    5.869399    5.752761    0.000000   -5.869401    5.752761    0.000000    0.000001   -4.413340    0.000000    0.000015  -62.868265    0.000000
 32Z    -0.000000    0.001333    0.008256   -0.000000   -0.000000   -0.006960    0.001155   -0.000667    0.008256   -0.001155   -0.000667    0.008256    0.000000   -0.001333    0.008256    0.000000    0.000000   -0.006960   -0.001155    0.000667    0.008256    0.001155    0.000667    0.008256   -0.000000    0.000000    0.001485    0.000000   -0.000000    0.001537   -0.000000   -0.000000    0.001485   -0.000000    0.000000    0.001485   -0.000000   -0.000000    5.163913    0.000000    0.000000    1.255811    0.000000    0.000000    5.163913    0.000000   -0.000000    5.163913    0.000000    0.000000    0.003666   -0.000000    0.008270    0.002129   -0.007162   -0.004135    0.002129    0.007162   -0.004135    0.002129    0.000000    0.000000    0.003666    0.000000   -0.008270    0.002129    0.007162    0.004135    0.002129   -0.007162    0.004135    0.002129   -0.000000   -0.000000    0.001382    0.000000   -0.000000    0.001382    0.000000    0.000000    0.001382    0.000000   -0.000000    0.002775   -0.000000   -0.000000   -0.795371    0.000000    0.000000   -0.795371   -0.000000   -0.000000   -0.795371    0.000000    0.000000  -14.430072

 Eigenvectors and eigenvalues of the dynamical matrix

   1 f  =   47.638624 THz   299.322301 2PiTHz 1589.053393 cm-1   197.017582 meV
             X         Y         Z           dx          dy          dz
      0.000000  0.000000  1.950768    -0.085362    0.154792   -0.000000
      2.467291  0.000000  1.950768    -0.085362    0.154792   -0.000000
     -1.233646  2.136737  1.950768    -0.085362    0.154792    0.000000
      1.233645  2.136737  1.950768    -0.085362    0.154792    0.000000
      0.000000  0.000000  9.753841    -0.085362    0.154792   -0.000000
      2.467291  0.000000  9.753841    -0.085362    0.154792    0.000000
     -1.233646  2.136737  9.753841    -0.085362    0.154792   -0.000000
      1.233645  2.136737  9.753841    -0.085362    0.154792    0.000000
      0.000000  0.000000  5.852305    -0.085362    0.154792    0.000000
      2.467291  0.000000  5.852305    -0.085362    0.154792   -0.000000
     -1.233646  2.136737  5.852305    -0.085362    0.154792    0.000000
      1.233645  2.136737  5.852305    -0.085362    0.154792   -0.000000
      0.000000  0.000000 13.655378    -0.085362    0.154792    0.000000
      2.467291  0.000000 13.655378    -0.085362    0.154792   -0.000000
     -1.233646  2.136737 13.655378    -0.085362    0.154792   -0.000000
      1.233645  2.136737 13.655378    -0.085362    0.154792    0.000000
     -0.000002  1.424492  1.950768     0.085370   -0.154805    0.000000
      2.467289  1.424492  1.950768     0.085370   -0.154805   -0.000000
     -1.233648  3.561229  1.950768     0.085370   -0.154805    0.000000
      1.233643  3.561229  1.950768     0.085370   -0.154805   -0.000000
     -0.000002  1.424492  9.753841     0.085370   -0.154805   -0.000000
      2.467289  1.424492  9.753841     0.085370   -0.154805   -0.000000
     -1.233648  3.561229  9.753841     0.085370   -0.154805    0.000000
      1.233643  3.561229  9.753841     0.085370   -0.154805    0.000000
      1.233647  0.712245  5.852305     0.085370   -0.154805   -0.000000
      3.700938  0.712245  5.852305     0.085370   -0.154805   -0.000000
      0.000001  2.848982  5.852305     0.085370   -0.154805    0.000000
      2.467292  2.848982  5.852305     0.085370   -0.154805    0.000000
      1.233647  0.712245 13.655378     0.085370   -0.154805   -0.000000
      3.700938  0.712245 13.655378     0.085370   -0.154805   -0.000000
      0.000001  2.848982 13.655378     0.085370   -0.154805    0.000000
      2.467292  2.848982 13.655378     0.085370   -0.154805    0.000000

[...]

  93 f  =    0.904968 THz     5.686080 2PiTHz   30.186474 cm-1     3.742647 meV
             X         Y         Z           dx          dy          dz
      0.000000  0.000000  1.950768    -0.000000   -0.000000    0.001535
      2.467291  0.000000  1.950768    -0.000000   -0.000000    0.001535
     -1.233646  2.136737  1.950768    -0.000000   -0.000000    0.001535
      1.233645  2.136737  1.950768    -0.000000   -0.000000    0.001535
      0.000000  0.000000  9.753841    -0.000000   -0.000000   -0.001535
      2.467291  0.000000  9.753841    -0.000000   -0.000000   -0.001535
     -1.233646  2.136737  9.753841    -0.000000   -0.000000   -0.001535
      1.233645  2.136737  9.753841    -0.000000   -0.000000   -0.001535
      0.000000  0.000000  5.852305    -0.000000   -0.000000    0.250213
      2.467291  0.000000  5.852305    -0.000000   -0.000000    0.250213
     -1.233646  2.136737  5.852305    -0.000000   -0.000000    0.250213
      1.233645  2.136737  5.852305    -0.000000   -0.000000    0.250213
      0.000000  0.000000 13.655378    -0.000000    0.000000   -0.250213
      2.467291  0.000000 13.655378    -0.000000    0.000000   -0.250213
     -1.233646  2.136737 13.655378    -0.000000    0.000000   -0.250213
      1.233645  2.136737 13.655378    -0.000000    0.000000   -0.250213
     -0.000002  1.424492  1.950768    -0.000000   -0.000000    0.001533
      2.467289  1.424492  1.950768    -0.000000   -0.000000    0.001533
     -1.233648  3.561229  1.950768    -0.000000   -0.000000    0.001533
      1.233643  3.561229  1.950768    -0.000000   -0.000000    0.001533
     -0.000002  1.424492  9.753841    -0.000000   -0.000000   -0.001533
      2.467289  1.424492  9.753841    -0.000000   -0.000000   -0.001533
     -1.233648  3.561229  9.753841    -0.000000   -0.000000   -0.001533
      1.233643  3.561229  9.753841    -0.000000   -0.000000   -0.001533
      1.233647  0.712245  5.852305    -0.000000   -0.000000    0.249777
      3.700938  0.712245  5.852305    -0.000000   -0.000000    0.249777
      0.000001  2.848982  5.852305    -0.000000   -0.000000    0.249777
      2.467292  2.848982  5.852305    -0.000000   -0.000000    0.249777
      1.233647  0.712245 13.655378    -0.000000    0.000000   -0.249777
      3.700938  0.712245 13.655378    -0.000000    0.000000   -0.249777
      0.000001  2.848982 13.655378    -0.000000    0.000000   -0.249777
      2.467292  2.848982 13.655378    -0.000000    0.000000   -0.249777

  94 f/i=    0.002055 THz     0.012910 2PiTHz    0.068539 cm-1     0.008498 meV
             X         Y         Z           dx          dy          dz
      0.000000  0.000000  1.950768     0.170967    0.044979   -0.000000
      2.467291  0.000000  1.950768     0.170967    0.044979   -0.000000
     -1.233646  2.136737  1.950768     0.170967    0.044979   -0.000000
      1.233645  2.136737  1.950768     0.170967    0.044979   -0.000000
      0.000000  0.000000  9.753841     0.170967    0.044979   -0.000000
      2.467291  0.000000  9.753841     0.170967    0.044979   -0.000000
     -1.233646  2.136737  9.753841     0.170967    0.044979   -0.000000
      1.233645  2.136737  9.753841     0.170967    0.044979   -0.000000
      0.000000  0.000000  5.852305     0.170967    0.044979   -0.000000
      2.467291  0.000000  5.852305     0.170967    0.044979   -0.000000
     -1.233646  2.136737  5.852305     0.170967    0.044979   -0.000000
      1.233645  2.136737  5.852305     0.170967    0.044979   -0.000000
      0.000000  0.000000 13.655378     0.170967    0.044979   -0.000000
      2.467291  0.000000 13.655378     0.170967    0.044979   -0.000000
     -1.233646  2.136737 13.655378     0.170967    0.044979   -0.000000
      1.233645  2.136737 13.655378     0.170967    0.044979   -0.000000
     -0.000002  1.424492  1.950768     0.170952    0.044975   -0.000000
      2.467289  1.424492  1.950768     0.170952    0.044975   -0.000000
     -1.233648  3.561229  1.950768     0.170952    0.044975   -0.000000
      1.233643  3.561229  1.950768     0.170952    0.044975   -0.000000
     -0.000002  1.424492  9.753841     0.170952    0.044975   -0.000000
      2.467289  1.424492  9.753841     0.170952    0.044975   -0.000000
     -1.233648  3.561229  9.753841     0.170952    0.044975   -0.000000
      1.233643  3.561229  9.753841     0.170952    0.044975   -0.000000
      1.233647  0.712245  5.852305     0.170952    0.044975   -0.000000
      3.700938  0.712245  5.852305     0.170952    0.044975   -0.000000
      0.000001  2.848982  5.852305     0.170952    0.044975   -0.000000
      2.467292  2.848982  5.852305     0.170952    0.044975   -0.000000
      1.233647  0.712245 13.655378     0.170952    0.044975   -0.000000
      3.700938  0.712245 13.655378     0.170952    0.044975   -0.000000
      0.000001  2.848982 13.655378     0.170952    0.044975   -0.000000
      2.467292  2.848982 13.655378     0.170952    0.044975   -0.000000

[...]

  96 f/i=    0.005082 THz     0.031929 2PiTHz    0.169505 cm-1     0.021016 meV
             X         Y         Z           dx          dy          dz
      0.000000  0.000000  1.950768     0.000000    0.000000    0.176811
      2.467291  0.000000  1.950768     0.000000    0.000000    0.176811
     -1.233646  2.136737  1.950768     0.000000    0.000000    0.176811
      1.233645  2.136737  1.950768     0.000000    0.000000    0.176811
      0.000000  0.000000  9.753841     0.000000    0.000000    0.176811
      2.467291  0.000000  9.753841     0.000000    0.000000    0.176811
     -1.233646  2.136737  9.753841     0.000000    0.000000    0.176811
      1.233645  2.136737  9.753841     0.000000    0.000000    0.176811
      0.000000  0.000000  5.852305     0.000000    0.000000    0.176811
      2.467291  0.000000  5.852305     0.000000    0.000000    0.176811
     -1.233646  2.136737  5.852305     0.000000    0.000000    0.176811
      1.233645  2.136737  5.852305     0.000000    0.000000    0.176811
      0.000000  0.000000 13.655378     0.000000    0.000000    0.176811
      2.467291  0.000000 13.655378     0.000000    0.000000    0.176811
     -1.233646  2.136737 13.655378     0.000000    0.000000    0.176811
      1.233645  2.136737 13.655378     0.000000    0.000000    0.176811
     -0.000002  1.424492  1.950768     0.000000    0.000000    0.176742
      2.467289  1.424492  1.950768     0.000000    0.000000    0.176742
     -1.233648  3.561229  1.950768     0.000000    0.000000    0.176742
      1.233643  3.561229  1.950768     0.000000    0.000000    0.176742
     -0.000002  1.424492  9.753841     0.000000    0.000000    0.176742
      2.467289  1.424492  9.753841     0.000000    0.000000    0.176742
     -1.233648  3.561229  9.753841     0.000000    0.000000    0.176742
      1.233643  3.561229  9.753841     0.000000    0.000000    0.176742
      1.233647  0.712245  5.852305     0.000000    0.000000    0.176742
      3.700938  0.712245  5.852305     0.000000    0.000000    0.176742
      0.000001  2.848982  5.852305     0.000000    0.000000    0.176742
      2.467292  2.848982  5.852305     0.000000    0.000000    0.176742
      1.233647  0.712245 13.655378     0.000000    0.000000    0.176742
      3.700938  0.712245 13.655378     0.000000    0.000000    0.176742
      0.000001  2.848982 13.655378     0.000000    0.000000    0.176742
      2.467292  2.848982 13.655378     0.000000    0.000000    0.176742

 ELASTIC MODULI CONTR FROM IONIC RELAXATION (kBar)
 Direction    XX          YY          ZZ          XY          YZ          ZX
 XX        -244.4524    244.4525      0.0000      0.0001     -0.0000      0.0000
 YY         244.4525   -244.4525     -0.0000      0.0001      0.0000     -0.0000
 ZZ           0.0000     -0.0000     -0.0000     -0.0000     -0.0000      0.0000
 XY           0.0001      0.0001     -0.0000   -244.4525     -0.0000      0.0000
 YZ          -0.0000      0.0000     -0.0000     -0.0000     -0.0000      0.0000
 ZX           0.0000     -0.0000      0.0000      0.0000      0.0000     -0.0000

 total charge

[...]

 magnetization (x)

# of ion       s       p       d       tot
    1       -0.000  -0.000   0.000  -0.000
    2       -0.000  -0.000   0.000  -0.000
    3       -0.000  -0.000   0.000  -0.000
    4       -0.000  -0.000   0.000  -0.000
    5       -0.000  -0.000   0.000  -0.000
    6       -0.000  -0.000   0.000  -0.000
    7       -0.000  -0.000   0.000  -0.000
    8       -0.000  -0.000   0.000  -0.000
    9       -0.000  -0.000   0.000  -0.000
   10       -0.000  -0.000   0.000  -0.000
   11       -0.000  -0.000   0.000  -0.000
   12       -0.000  -0.000   0.000  -0.000
   13       -0.000  -0.000   0.000  -0.000
   14       -0.000  -0.000   0.000  -0.000
   15       -0.000  -0.000   0.000  -0.000
   16       -0.000  -0.000   0.000  -0.000
   17       -0.000   0.000   0.000   0.000
   18       -0.000   0.000   0.000   0.000
   19       -0.000   0.000   0.000   0.000
   20       -0.000   0.000   0.000   0.000
   21       -0.000   0.000   0.000   0.000
   22       -0.000   0.000   0.000   0.000
   23       -0.000   0.000   0.000   0.000
   24       -0.000   0.000   0.000   0.000
   25       -0.000   0.000   0.000   0.000
   26       -0.000   0.000   0.000   0.000
   27       -0.000   0.000   0.000   0.000
   28       -0.000   0.000   0.000   0.000
   29       -0.000   0.000   0.000   0.000
   30       -0.000   0.000   0.000   0.000
   31       -0.000   0.000   0.000   0.000
   32       -0.000   0.000   0.000   0.000
tot         -0.000  -0.000   0.000  -0.000

 BZINTS: Fermi energy:  2.573525;128.000000 electrons
         Band energy:-727.502402;  BLOECHL correction:  0.000000