 vasp.5.4.4.18Apr17-6-g9f103f2a35 (build Jul  5 2023 12:24:19) complex
 executed on NVIDIA22.7_CrayMPICH date 2023.10.16  23:32:13

 INCAR:
 POTCAR:   PAW_PBE C 08Apr2002
 POTCAR:   PAW_PBE C 08Apr2002

 PAW_PBE C 08Apr2002                    :

 POSCAR: C4
  positions in direct lattice
 exchange correlation table for  LEXCH =        8
   RHO(1)=    0.500       N(1)  =     2000
   RHO(2)=  100.500       N(2)  =     4000

 ion  position               nearest neighbor table
   1  0.333  0.667  0.937-   3 1.54   3 1.54   3 1.54   4 1.57
   2  0.667  0.333  0.437-   4 1.54   4 1.54   4 1.54   3 1.57
   3  0.667  0.333  0.063-   1 1.54   1 1.54   1 1.54   2 1.57
   4  0.333  0.667  0.563-   2 1.54   2 1.54   2 1.54   1 1.57

  LATTYP: Found a hexagonal cell.
 ALAT       =     2.5130937869
 C/A-ratio  =     1.6638463800

  Lattice vectors:

 A1 = (   2.5130940000,   0.0000000000,   0.0000000000)
 A2 = (  -1.2565470000,   2.1764030000,   0.0000000000)
 A3 = (   0.0000000000,   0.0000000000,   4.1814020000)

Analysis of symmetry for initial positions (statically):
 Subroutine PRICEL returns:
 Original cell was already a primitive cell.

 Routine SETGRP: Setting up the symmetry group for a
 hexagonal supercell.

 Subroutine GETGRP returns: Found 24 space group operations
 (whereof 12 operations were pure point group operations)
 out of a pool of 24 trial point group operations.

The static configuration has the point symmetry D_3d.
 The point group associated with its full space group is D_6h.

Analysis of symmetry for dynamics (positions and initial velocities):
 Subroutine PRICEL returns:
 Original cell was already a primitive cell.

[...]

The dynamic configuration has the point symmetry D_3d.
 The point group associated with its full space group is D_6h.

Analysis of structural, dynamic, and magnetic symmetry:
 Subroutine PRICEL returns:
 Original cell was already a primitive cell.

 Routine SETGRP: Setting up the symmetry group for a
 hexagonal supercell.

 Subroutine GETGRP returns: Found 24 space group operations
 (whereof 12 operations were pure point group operations)
 out of a pool of 24 trial point group operations.

The magnetic configuration has the point symmetry D_3d.
 The point group associated with its full space group is D_6h.

 Subroutine INISYM returns: Found 24 space group operations
 (whereof 12 operations are pure point group operations),
 and found     1 'primitive' translations

 KPOINTS: kpt_density=6000

Automatic generation of k-mesh.
Space group operators:
 irot       det(A)        alpha          n_x          n_y          n_z        tau_x        tau_y        tau_z
    1     1.000000     0.000000     1.000000     0.000000     0.000000     0.000000     0.000000     0.000000
    2    -1.000000     0.000000     1.000000     0.000000     0.000000     0.000000     0.000000     0.000000
    3     1.000000   120.000000     0.000000     0.000000    -1.000000     0.000000     0.000000     0.000000
    4    -1.000000   120.000000     0.000000     0.000000    -1.000000     0.000000     0.000000     0.000000
    5     1.000000   120.000000     0.000000     0.000000     1.000000     0.000000     0.000000     0.000000
    6    -1.000000   120.000000     0.000000     0.000000     1.000000     0.000000     0.000000     0.000000
    7     1.000000   180.000000     1.000000     0.000000     0.000000     0.000000     0.000000     0.000000
    8    -1.000000   180.000000     1.000000     0.000000     0.000000     0.000000     0.000000     0.000000
    9     1.000000   180.000000     0.500000    -0.866025     0.000000     0.000000     0.000000     0.000000
   10    -1.000000   180.000000     0.500000    -0.866025     0.000000     0.000000     0.000000     0.000000
   11     1.000000   180.000000    -0.500000    -0.866025     0.000000     0.000000     0.000000     0.000000
   12    -1.000000   180.000000    -0.500000    -0.866025     0.000000     0.000000     0.000000     0.000000
   13     1.000000    60.000000     0.000000     0.000000    -1.000000     0.000001     0.000000     0.500000
   14    -1.000000    60.000000     0.000000    -0.000000    -1.000000     0.000001     0.000000     0.500000
   15     1.000000   180.000000     0.000000     0.000000     1.000000     0.000000     0.000000     0.500000
   16    -1.000000   180.000000     0.000000     0.000000     1.000000     0.000000     0.000000     0.500000
   17     1.000000    60.000000     0.000000     0.000000     1.000000     0.000000     0.000000     0.500000
   18    -1.000000    60.000000     0.000000     0.000000     1.000000     0.000000     0.000000     0.500000
   19     1.000000   180.000000     0.866025    -0.500000     0.000000     0.000000     0.000000     0.500000
   20    -1.000000   180.000000     0.866025    -0.500000     0.000000     0.000000     0.000000     0.500000
   21     1.000000   180.000000     0.000000     1.000000     0.000000     0.000001     0.000000     0.500000
   22    -1.000000   180.000000     0.000000     1.000000     0.000000     0.000001     0.000000     0.500000
   23     1.000000   180.000000     0.866025     0.500000     0.000000     0.000000     0.000000     0.500000
   24    -1.000000   180.000000     0.866025     0.500000     0.000000     0.000000     0.000000     0.500000

 Subroutine IBZKPT returns following result:

 Found     96 irreducible k-points:

 Following reciprocal coordinates:
            Coordinates               Weight
  0.000000  0.000000  0.000000      1.000000
  0.071429  0.000000  0.000000      6.000000
  0.142857  0.000000  0.000000      6.000000
  0.214286  0.000000  0.000000      6.000000
  0.285714  0.000000  0.000000      6.000000
  0.357143  0.000000  0.000000      6.000000
  0.428571  0.000000  0.000000      6.000000
  0.500000  0.000000  0.000000      3.000000
  0.071429  0.071429  0.000000      6.000000
  0.142857  0.071429  0.000000     12.000000
  0.214286  0.071429  0.000000     12.000000
  0.285714  0.071429  0.000000     12.000000
  0.357143  0.071429  0.000000     12.000000
  0.428571  0.071429  0.000000     12.000000
  0.142857  0.142857  0.000000      6.000000
  0.214286  0.142857  0.000000     12.000000
  0.285714  0.142857  0.000000     12.000000
  0.357143  0.142857  0.000000     12.000000
  0.428571  0.142857  0.000000      6.000000
  0.214286  0.214286  0.000000      6.000000
  0.285714  0.214286  0.000000     12.000000
  0.357143  0.214286  0.000000     12.000000
  0.285714  0.285714  0.000000      6.000000
  0.357143  0.285714  0.000000      6.000000
  0.000000  0.000000  0.166667      2.000000
  0.071429  0.000000  0.166667     12.000000
  0.142857  0.000000  0.166667     12.000000
  0.214286  0.000000  0.166667     12.000000
  0.285714  0.000000  0.166667     12.000000
  0.357143  0.000000  0.166667     12.000000
  0.428571  0.000000  0.166667     12.000000
  0.500000  0.000000  0.166667      6.000000
  0.071429  0.071429  0.166667     12.000000
  0.142857  0.071429  0.166667     24.000000
  0.214286  0.071429  0.166667     24.000000
  0.285714  0.071429  0.166667     24.000000
  0.357143  0.071429  0.166667     24.000000
  0.428571  0.071429  0.166667     24.000000
  0.142857  0.142857  0.166667     12.000000
  0.214286  0.142857  0.166667     24.000000
  0.285714  0.142857  0.166667     24.000000
  0.357143  0.142857  0.166667     24.000000
  0.428571  0.142857  0.166667     12.000000
  0.214286  0.214286  0.166667     12.000000
  0.285714  0.214286  0.166667     24.000000
  0.357143  0.214286  0.166667     24.000000
  0.285714  0.285714  0.166667     12.000000
  0.357143  0.285714  0.166667     12.000000
  0.000000  0.000000  0.333333      2.000000
  0.071429  0.000000  0.333333     12.000000
  0.142857  0.000000  0.333333     12.000000
  0.214286  0.000000  0.333333     12.000000
  0.285714  0.000000  0.333333     12.000000
  0.357143  0.000000  0.333333     12.000000
  0.428571  0.000000  0.333333     12.000000
  0.500000  0.000000  0.333333      6.000000
  0.071429  0.071429  0.333333     12.000000
  0.142857  0.071429  0.333333     24.000000
  0.214286  0.071429  0.333333     24.000000
  0.285714  0.071429  0.333333     24.000000
[...]
  0.142857  0.071429  0.500000     12.000000
  0.214286  0.071429  0.500000     12.000000
  0.285714  0.071429  0.500000     12.000000
  0.357143  0.071429  0.500000     12.000000
  0.428571  0.071429  0.500000     12.000000
  0.142857  0.142857  0.500000      6.000000
  0.214286  0.142857  0.500000     12.000000
  0.285714  0.142857  0.500000     12.000000
  0.357143  0.142857  0.500000     12.000000
  0.428571  0.142857  0.500000      6.000000
  0.214286  0.214286  0.500000      6.000000
  0.285714  0.214286  0.500000     12.000000
  0.357143  0.214286  0.500000     12.000000
  0.285714  0.285714  0.500000      6.000000
  0.357143  0.285714  0.500000      6.000000

 Following cartesian coordinates:
            Coordinates               Weight
  0.000000  0.000000  0.000000      1.000000
  0.028423  0.016410  0.000000      6.000000
  0.056845  0.032820  0.000000      6.000000
  0.085268  0.049229  0.000000      6.000000
  0.113690  0.065639  0.000000      6.000000
  0.142113  0.082049  0.000000      6.000000
  0.170535  0.098459  0.000000      6.000000
  0.198958  0.114868  0.000000      3.000000
  0.028423  0.049229  0.000000      6.000000
  0.056845  0.065639  0.000000     12.000000
  0.085268  0.082049  0.000000     12.000000
  0.113690  0.098459  0.000000     12.000000
  0.142113  0.114868  0.000000     12.000000
  0.170535  0.131278  0.000000     12.000000
  0.056845  0.098459  0.000000      6.000000
  0.085268  0.114868  0.000000     12.000000
  0.113690  0.131278  0.000000     12.000000
  0.142113  0.147688  0.000000     12.000000
  0.170535  0.164098  0.000000      6.000000
  0.085268  0.147688  0.000000      6.000000
  0.113690  0.164098  0.000000     12.000000
  0.142113  0.180508  0.000000     12.000000
  0.113690  0.196917  0.000000      6.000000
  0.142113  0.213327  0.000000      6.000000
  0.000000  0.000000  0.039859      2.000000
  0.028423  0.016410  0.039859     12.000000
  0.056845  0.032820  0.039859     12.000000
  0.085268  0.049229  0.039859     12.000000
  0.113690  0.065639  0.039859     12.000000
  0.142113  0.082049  0.039859     12.000000
  0.170535  0.098459  0.039859     12.000000
  0.198958  0.114868  0.039859      6.000000
  0.028423  0.049229  0.039859     12.000000
  0.056845  0.065639  0.039859     24.000000
  0.085268  0.082049  0.039859     24.000000
  0.113690  0.098459  0.039859     24.000000
  0.142113  0.114868  0.039859     24.000000
  0.170535  0.131278  0.039859     24.000000
  0.056845  0.098459  0.039859     12.000000
  0.085268  0.114868  0.039859     24.000000
  0.113690  0.131278  0.039859     24.000000
  0.142113  0.147688  0.039859     24.000000
  0.170535  0.164098  0.039859     12.000000
  0.085268  0.147688  0.039859     12.000000
  0.113690  0.164098  0.039859     24.000000
  0.142113  0.180508  0.039859     24.000000
  0.113690  0.196917  0.039859     12.000000
  0.142113  0.213327  0.039859     12.000000
  0.000000  0.000000  0.079718      2.000000
  0.028423  0.016410  0.079718     12.000000
  0.056845  0.032820  0.079718     12.000000
[...]
 k-point 33 :   0.0714 0.0714 0.1667  plane waves:     405
 k-point 34 :   0.1429 0.0714 0.1667  plane waves:     407
 k-point 35 :   0.2143 0.0714 0.1667  plane waves:     415
 k-point 36 :   0.2857 0.0714 0.1667  plane waves:     419
 k-point 37 :   0.3571 0.0714 0.1667  plane waves:     418
 k-point 38 :   0.4286 0.0714 0.1667  plane waves:     419
 k-point 39 :   0.1429 0.1429 0.1667  plane waves:     411
 k-point 40 :   0.2143 0.1429 0.1667  plane waves:     414
 k-point 41 :   0.2857 0.1429 0.1667  plane waves:     417
 k-point 42 :   0.3571 0.1429 0.1667  plane waves:     419
 k-point 43 :   0.4286 0.1429 0.1667  plane waves:     421
 k-point 44 :   0.2143 0.2143 0.1667  plane waves:     416
 k-point 45 :   0.2857 0.2143 0.1667  plane waves:     416
 k-point 46 :   0.3571 0.2143 0.1667  plane waves:     419
 k-point 47 :   0.2857 0.2857 0.1667  plane waves:     414
 k-point 48 :   0.3571 0.2857 0.1667  plane waves:     416
 k-point 49 :   0.0000 0.0000 0.3333  plane waves:     398
 k-point 50 :   0.0714 0.0000 0.3333  plane waves:     408
 k-point 51 :   0.1429 0.0000 0.3333  plane waves:     409
 k-point 52 :   0.2143 0.0000 0.3333  plane waves:     412
 k-point 53 :   0.2857 0.0000 0.3333  plane waves:     419
 k-point 54 :   0.3571 0.0000 0.3333  plane waves:     419
 k-point 55 :   0.4286 0.0000 0.3333  plane waves:     416
 k-point 56 :   0.5000 0.0000 0.3333  plane waves:     412
 k-point 57 :   0.0714 0.0714 0.3333  plane waves:     408
 k-point 58 :   0.1429 0.0714 0.3333  plane waves:     414
 k-point 59 :   0.2143 0.0714 0.3333  plane waves:     414
 k-point 60 :   0.2857 0.0714 0.3333  plane waves:     417
[...]
 k-point 82 :   0.1429 0.0714 0.5000  plane waves:     418
 k-point 83 :   0.2143 0.0714 0.5000  plane waves:     416
 k-point 84 :   0.2857 0.0714 0.5000  plane waves:     416
 k-point 85 :   0.3571 0.0714 0.5000  plane waves:     420
 k-point 86 :   0.4286 0.0714 0.5000  plane waves:     412
 k-point 87 :   0.1429 0.1429 0.5000  plane waves:     416
 k-point 88 :   0.2143 0.1429 0.5000  plane waves:     418
 k-point 89 :   0.2857 0.1429 0.5000  plane waves:     418
 k-point 90 :   0.3571 0.1429 0.5000  plane waves:     416
 k-point 91 :   0.4286 0.1429 0.5000  plane waves:     410
 k-point 92 :   0.2143 0.2143 0.5000  plane waves:     422
 k-point 93 :   0.2857 0.2143 0.5000  plane waves:     420
 k-point 94 :   0.3571 0.2143 0.5000  plane waves:     416
 k-point 95 :   0.2857 0.2857 0.5000  plane waves:     424
 k-point 96 :   0.3571 0.2857 0.5000  plane waves:     416

 maximum and minimum number of plane-waves per node :       116       84

 maximum number of plane-waves:       430
 maximum index in each direction:
   IXMAX=    4   IYMAX=    4   IZMAX=    6
   IXMIN=   -4   IYMIN=   -4   IZMIN=   -7

 parallel 3D FFT for wavefunctions:
    minimum data exchange during FFTs selected (reduces bandwidth)
 parallel 3D FFT for charge:
    minimum data exchange during FFTs selected (reduces bandwidth)

 Broyden mixing: mesh for mixing (old mesh)
   NGX =  9   NGY =  9   NGZ = 13
  (NGX  = 32   NGY  = 32   NGZ  = 56)
  gives a total of   1053 points

 charge density for first step will be calculated from the start-wavefunctions

 Maximum index for augmentation-charges           192 (set IRDMAX)

 initial charge from wavefunction
 First call to EWALD:  gamma=   0.624
 Maximum number of real-space cells 3x 3x 2
 Maximum number of reciprocal cells 2x 2x 4

--------------------------------------- Iteration      1(   1)  ---------------------------------------

 BZINTS: Fermi energy: 11.800224; 16.000000 electrons
         Band energy: -45.934342;  BLOECHL correction: -0.000689

 eigenvalue-minimisations  :  6384
 total energy-change (2. order) :-0.5188667E+02  (-0.7862084E+03)
 number of electron      16.0000002 magnetization       0.0000000
 augmentation part       -0.0805169 magnetization      -0.0098027

 Free energy of the ion-electron system (eV)
  alpha Z        PSCENC =        57.00355031
  Ewald energy   TEWEN  =      -693.14249887
  -Hartree energ DENC   =       -10.98334729
  -exchange      EXHF   =         0.00000000
  -V(xc)+E(xc)   XCENC  =        54.99563597
  PAW double counting   =        41.61605702      -43.95062456
  entropy T*S    EENTRO =         0.00000000
  eigenvalues    EBANDS =       -45.93434201
  atomic energy  EATOM  =       588.50889549
  Solvation  Ediel_sol  =         0.00000000
  free energy    TOTEN  =       -51.88667396 eV

  energy without entropy =      -51.88667396  energy(sigma->0) =      -51.88667396

[...]

 BZINTS: Fermi energy:  1.049271; 16.000000 electrons
         Band energy:-100.352606;  BLOECHL correction:  0.000000

[...]

 BZINTS: Fermi energy:  0.833240; 16.000000 electrons
         Band energy:-102.188516;  BLOECHL correction:  0.000000

[...]

 Broyden mixing:
  rms(total) = 0.39055E+01    rms(broyden)= 0.39007E+01
  rms(prec ) = 0.86286E+01
  weight for this iteration     100.00

[...]

 eigenvalue-minimisations  :  6376
 total energy-change (2. order) : 0.5191254E+02  (-0.2559908E+01)
 number of electron      15.9999989 magnetization       0.0000000
 augmentation part        0.4312158 magnetization      -0.0000495

[...]

 eigenvalues of (default mixing * dielectric matrix)
  average eigenvalue GAMMA=   2.1595
  2.1595

[...]

 Broyden mixing:
  rms(total) = 0.32052E-03    rms(broyden)= 0.32052E-03
  rms(prec ) = 0.71586E-03
  weight for this iteration     100.00

[...]

 Free energy of the ion-electron system (eV)
  alpha Z        PSCENC =        57.00355031
  Ewald energy   TEWEN  =      -693.14249887
  -Hartree energ DENC   =       -53.82922499
  -exchange      EXHF   =         0.00000000
  -V(xc)+E(xc)   XCENC  =        58.74336718
  PAW double counting   =       261.46940501     -266.51963564
  entropy T*S    EENTRO =         0.00000000
  eigenvalues    EBANDS =        11.49008976
  atomic energy  EATOM  =       588.50889549
  Solvation  Ediel_sol  =         0.00000000
  free energy    TOTEN  =       -36.27605174 eV

  energy without entropy =      -36.27605174  energy(sigma->0) =      -36.27605174

 average (electrostatic) potential at core
  the test charge radii are     0.6991
  (the norm of the test charge is              1.0000)
       1 -45.4948       2 -45.4948       3 -45.4948       4 -45.4948

 E-fermi :   9.9880     XC(G=0): -13.1781     alpha+bet :-17.5582

 spin component 1

 k-point     1 :       0.0000    0.0000    0.0000
  band No.  band energies     occupation
      1     -11.7528      1.00000
      2      -6.2188      1.00000
      3      -3.6713      1.00000
      4       6.8713      1.00000
      5       6.8714      1.00000
      6       9.4647      1.00000
      7       9.9510      1.00000
      8       9.9511      1.00000
      9      14.8980      0.00000
     10      14.8981      0.00000
     11      15.2907      0.00000
     12      17.9460      0.00000
     13      19.4188      0.00000
     14      19.4189      0.00000
     15      23.7920      0.00000
     16      27.5527      0.00000

[...]

 spin component 2

[...]

 k-point    96 :       0.3571    0.2857    0.5000
  band No.  band energies     occupation
      1      -3.8266      1.00000
      2      -3.8266      1.00000
      3      -2.4293      1.00000
      4      -2.4293      1.00000
      5       0.7014      1.00000
      6       0.7014      1.00000
      7       5.6473      1.00000
      8       5.6473      1.00000
      9      17.2372      0.00000
     10      17.2373      0.00000
     11      19.1254      0.00000
     12      19.1254      0.00000
     13      22.0893      0.00000
     14      22.0893      0.00000
     15      25.1547      0.00000
     16      25.1547      0.00000

 soft charge-density along one line, spin component            1
         0         1         2         3         4         5         6         7         8         9
 total charge-density along one line

 soft charge-density along one line, spin component            2
         0         1         2         3         4         5         6         7         8         9
 total charge-density along one line

------------------------ aborting loop because EDIFF is reached ----------------------------------------

 total charge

# of ion       s       p       d       tot
    1        0.834   1.742   0.000   2.576
    2        0.833   1.744   0.000   2.577
    3        0.834   1.742   0.000   2.576
    4        0.833   1.744   0.000   2.577
tot          3.335   6.972   0.000  10.306

 magnetization (x)

[...]

  FORCE on cell =-STRESS in cart. coord.  units (eV):
  Direction    XX          YY          ZZ          XY          YZ          ZX
  Alpha Z    57.00355    57.00355    57.00355
  Ewald    -231.49463  -231.49366  -230.15402     0.00081     0.00000    -0.00000
  Hartree    17.27049    17.27050    19.29017     0.00001    -0.00000    -0.00000
  E(xc)     -59.76680   -59.76680   -59.72945    -0.00000     0.00000     0.00000
  Local     -23.11482   -23.11537   -26.36085    -0.00048     0.00000    -0.00000
  n-local   -13.61086   -14.55269   -13.63481    -0.58078     0.04764     0.13189
  augment    -1.40307    -1.40304    -1.40711     0.00003     0.00000     0.00000
  Kinetic   249.80760   260.14726   254.41756     0.21425     0.16377    -1.00627
  Fock        0.00000     0.00000     0.00000     0.00000     0.00000     0.00000
  Total      -0.60940    -0.60940    -0.57496    -0.00000     0.00000    -0.00000
  in kB     -42.69187   -42.69187   -40.27923    -0.00000     0.00000    -0.00000

 VOLUME and BASIS-vectors are now :
  energy-cutoff  :      400.00
  volume of cell :       22.87
      direct lattice vectors                 reciprocal lattice vectors
     2.513094000  0.000000000  0.000000000     0.397915876  0.229736864 -0.000000000
    -1.256547000  2.176403000  0.000000000     0.000000000  0.459473728  0.000000000
     0.000000000  0.000000000  4.181402000     0.000000000 -0.000000000  0.239154236

  length of vectors
     2.513094000  2.513093787  4.181402000     0.459473689  0.459473728  0.239154236

 FORCES acting on ions
    electron-ion (+dipol)            ewald-force                    non-local-force                 convergence-correction
   0.181E-03 -.950E-04 0.500E+01   0.297E-03 -.190E-03 -.498E+01   -.347E-17 -.139E-16 -.213E-01   0.123E-07 -.720E-08 0.532E-04
   -.312E-03 0.170E-03 0.500E+01   -.297E-03 0.190E-03 -.498E+01   0.121E-16 0.694E-17 -.213E-01   -.120E-07 0.707E-08 0.532E-04
   -.429E-03 0.238E-03 -.500E+01   -.297E-03 0.190E-03 0.498E+01   -.867E-17 0.208E-16 0.213E-01   -.118E-07 0.695E-08 -.532E-04
   0.299E-03 -.163E-03 -.500E+01   0.297E-03 -.190E-03 0.498E+01   -.208E-16 -.694E-17 0.213E-01   0.120E-07 -.708E-08 -.532E-04
   -.261E-03 0.151E-03 0.233E-05   -.381E-14 -.151E-15 -.178E-14   -.208E-16 0.694E-17 0.208E-16   0.452E-09 -.261E-09 -.102E-09

 POSITION                                       TOTAL-FORCE (eV/Angst)
     -0.00000      1.45094      3.91893         0.000000     -0.000000      0.005357
      1.25655      0.72547      1.82823        -0.000000      0.000000      0.005357
      1.25655      0.72547      0.26247        -0.000000      0.000000     -0.005357
     -0.00000      1.45094      2.35318         0.000000     -0.000000     -0.005357
    total drift:                               -0.000261      0.000151      0.000002

  FREE ENERGIE OF THE ION-ELECTRON SYSTEM (eV)
  free  energy   TOTEN  =       -36.27605174 eV

  energy  without entropy=      -36.27605174  energy(sigma->0) =      -36.27605174
  enthalpy is  TOTEN    =       -22.00160155 eV   P V=       14.27445019

[...]

  free energy =  -0.362791017113E+02  energy without entropy=  -0.362791017113E+02

[...]

 d Force =-0.1314730E-06[-0.428E-06, 0.165E-06]  d Energy = 0.2301203E+00-0.230E+00
 d Force =-0.1543615E-03[-0.155E-03,-0.153E-03]  d Ewald  = 0.3749919E+01-0.375E+01

 Steepest descent step on ions:
 trial-energy change:   -0.230120  1 .order   -0.229459   -0.240091   -0.218828
  (g-gl).g = 0.240E+00      g.g   = 0.240E+00  gl.gl    = 0.000E+00
 g(Force)  = 0.166E-06   g(Stress)= 0.240E+00 ortho     = 0.000E+00
 gamma     =   0.00000
 trial     =   1.00000
 opt step  =   4.00000  (harmonic =  11.29176) maximal distance =0.00003101
 next E    =   -22.845582   (d E  =  -0.84398)

[...]

 d Force =-0.4108746E-05[-0.695E-05,-0.127E-05]  d Energy = 0.5650854E+00-0.565E+00
 d Force =-0.4689073E-03[-0.477E-03,-0.461E-03]  d Ewald  = 0.1149723E+02-0.115E+02

[...]

 d Force =-0.1706193E-05[-0.173E-05,-0.168E-05]  d Energy = 0.7225811E-03-0.724E-03
 d Force =-0.4248624E-04[-0.425E-04,-0.424E-04]  d Ewald  = 0.1020183E+01-0.102E+01

[...]

 d Force = 0.6919206E-03[ 0.522E-03, 0.862E-03]  d Energy = 0.7381893E-03-0.463E-04
 d Force = 0.2094087E-01[ 0.207E-01, 0.212E-01]  d Ewald  = 0.3646617E-01-0.155E-01

 Conjugate gradient step on ions:
 trial-energy change:   -0.000738  1 .order   -0.000738   -0.000907   -0.000569
  (g-gl).g = 0.750E-03      g.g   = 0.320E-03  gl.gl    = 0.240E+00
 g(Force)  = 0.303E-03   g(Stress)= 0.171E-04 ortho     =-0.431E-03
 gamma     =   0.00313
 trial     =   2.84891
 opt step  =   7.64799  (harmonic =   7.64799) maximal distance =0.00253003
 next E    =   -23.299467   (d E  =  -0.00122)

[...]

 d Force = 0.3930816E-03[-0.932E-04, 0.879E-03]  d Energy = 0.4761542E-03-0.831E-04
 d Force = 0.3417002E-01[ 0.335E-01, 0.349E-01]  d Ewald  = 0.6080752E-01-0.266E-01

[...]

 d Force =-0.4645167E-06[-0.375E-06,-0.554E-06]  d Energy = 0.7016870E-04-0.706E-04
 d Force = 0.2007276E-03[ 0.203E-03, 0.199E-03]  d Ewald  =-0.2419613E-01 0.244E-01

 Conjugate gradient step on ions:
 trial-energy change:   -0.000070  1 .order   -0.000071   -0.000085   -0.000056
  (g-gl).g = 0.229E-04      g.g   = 0.226E-04  gl.gl    = 0.320E-03
 g(Force)  = 0.125E-05   g(Stress)= 0.213E-04 ortho     =-0.170E-05
 gamma     =   0.07169
 trial     =   3.80872
 opt step  =  10.91616  (harmonic =  10.91616) maximal distance =0.00002705
 next E    =   -23.299586   (d E  =  -0.00012)

[...]

 eigenvalue-minimisations  :  8048
 total energy-change (2. order) : 0.8125847E-05  (-0.1351585E-05)
 number of electron      16.0000002 magnetization      -0.0000000
 augmentation part        0.4382887 magnetization      -0.0000006

 eigenvalues of (default mixing * dielectric matrix)
  average eigenvalue GAMMA=   1.6291
  1.0849  2.1733

[...]

--------------------------------------- Iteration      9(   4)  ---------------------------------------

[...]

 eigenvalue-minimisations  :  4656
 total energy-change (2. order) :-0.4187814E-07  (-0.1040987E-06)
 number of electron      16.0000002 magnetization      -0.0000000
 augmentation part        0.4382887 magnetization      -0.0000006

  free energy =  -0.353426520451E+02  energy without entropy=  -0.353426520451E+02

------------------------ aborting loop because EDIFF is reached ----------------------------------------

[...]

  FORCE on cell =-STRESS in cart. coord.  units (eV):
  Direction    XX          YY          ZZ          XY          YZ          ZX
  Alpha Z    67.56539    67.56539    67.56539
  Ewald    -245.71766  -245.71664  -242.17455     0.00085    -0.00000     0.00000
  Hartree    15.73192    15.73193    17.82871     0.00001    -0.00000     0.00000
  E(xc)     -62.20855   -62.20855   -62.16287     0.00000     0.00000     0.00000
  Local     -16.26019   -16.26073   -21.34166    -0.00047    -0.00000    -0.00000
  n-local   -17.32207   -17.92271   -17.07630    -1.54538    -0.05662     0.06312
  augment    -1.78002    -1.77999    -1.78330     0.00002     0.00000     0.00000
  Kinetic   267.16381   277.49280   271.18776     2.51845     0.75900    -0.82650
  Fock        0.00000     0.00000     0.00000     0.00000     0.00000     0.00000
  Total      12.03707    12.03707    12.04317     0.00000    -0.00000     0.00000
  in kB     999.50227   999.50200  1000.00881     0.00000    -0.00000     0.00000

  FREE ENERGIE OF THE ION-ELECTRON SYSTEM (eV)
  free  energy   TOTEN  =       -35.34265205 eV

  energy  without entropy=      -35.34265205  energy(sigma->0) =      -35.34265205
  enthalpy is  TOTEN    =       -23.29958710 eV   P V=       12.04306494

 d Force =-0.4053796E-06[-0.111E-06,-0.700E-06]  d Energy = 0.5290935E-04-0.533E-04
 d Force = 0.3841927E-03[ 0.390E-03, 0.378E-03]  d Ewald  =-0.4524923E-01 0.456E-01

 reached required accuracy - stopping structural energy minimisation

 total charge

[...]

 magnetization (x)

# of ion       s       p       d       tot
    1       -0.000   0.000   0.000   0.000
    2       -0.000   0.000   0.000   0.000
    3       -0.000   0.000   0.000   0.000
    4       -0.000   0.000   0.000   0.000
tot         -0.000   0.000   0.000   0.000

 BZINTS: Fermi energy: 12.777422; 16.000000 electrons
         Band energy:  35.525639;  BLOECHL correction:  0.000000