 vasp.5.4.4.18Apr17-6-g9f103f2a35 (build Jul  5 2023 12:24:19) complex
 executed on NVIDIA22.7_CrayMPICH date 2023.10.16  23:30:57

 INCAR:
 POTCAR:   PAW_PBE C 08Apr2002
 POTCAR:   PAW_PBE C 08Apr2002

 PAW_PBE C 08Apr2002                    :

 POSCAR: C4
  positions in direct lattice
 exchange correlation table for  LEXCH =        8
   RHO(1)=    0.500       N(1)  =     2000
   RHO(2)=  100.500       N(2)  =     4000

 ion  position               nearest neighbor table
   1  0.000  0.000  0.250-   3 1.42   3 1.42   3 1.42
   2  0.000  0.000  0.750-   4 1.42   4 1.42   4 1.42
   3  0.333  0.667  0.250-   1 1.42   1 1.42   1 1.42
   4  0.667  0.333  0.750-   2 1.42   2 1.42   2 1.42

  LATTYP: Found a hexagonal cell.
 ALAT       =     2.4672910232
 C/A-ratio  =     3.1626074616

  Lattice vectors:

 A1 = (   2.4672910000,   0.0000000000,   0.0000000000)
 A2 = (  -1.2336460000,   2.1367370000,   0.0000000000)
 A3 = (   0.0000000000,   0.0000000000,   7.8030730000)

Analysis of symmetry for initial positions (statically):
 Subroutine PRICEL returns:
 Original cell was already a primitive cell.

 Routine SETGRP: Setting up the symmetry group for a
 hexagonal supercell.

 Subroutine GETGRP returns: Found 24 space group operations
 (whereof 12 operations were pure point group operations)
 out of a pool of 24 trial point group operations.

The static configuration has the point symmetry D_3d.
 The point group associated with its full space group is D_6h.

Analysis of symmetry for dynamics (positions and initial velocities):
 Subroutine PRICEL returns:
 Original cell was already a primitive cell.

[...]

The dynamic configuration has the point symmetry D_3d.
 The point group associated with its full space group is D_6h.

Analysis of structural, dynamic, and magnetic symmetry:
 Subroutine PRICEL returns:
 Original cell was already a primitive cell.

 Routine SETGRP: Setting up the symmetry group for a
 hexagonal supercell.

 Subroutine GETGRP returns: Found 24 space group operations
 (whereof 12 operations were pure point group operations)
 out of a pool of 24 trial point group operations.

The magnetic configuration has the point symmetry D_3d.
 The point group associated with its full space group is D_6h.

 Subroutine INISYM returns: Found 24 space group operations
 (whereof 12 operations are pure point group operations),
 and found     1 'primitive' translations

 KPOINTS: kpt_density=6000

Automatic generation of k-mesh.
Space group operators:
 irot       det(A)        alpha          n_x          n_y          n_z        tau_x        tau_y        tau_z
    1     1.000000     0.000000     1.000000     0.000000     0.000000     0.000000     0.000000     0.000000
    2    -1.000000     0.000000     1.000000     0.000000     0.000000     0.000000     0.000000     0.000000
    3     1.000000   120.000000     0.000000     0.000000    -1.000000     0.000000     0.000000     0.000000
    4    -1.000000   120.000000     0.000000     0.000000    -1.000000     0.000000     0.000000     0.000000
    5     1.000000   120.000000     0.000000     0.000000     1.000000     0.000000     0.000000     0.000000
    6    -1.000000   120.000000     0.000000     0.000000     1.000000     0.000000     0.000000     0.000000
    7     1.000000   180.000000     1.000000     0.000000     0.000000     0.000000     0.000000     0.000000
    8    -1.000000   180.000000     1.000000     0.000000     0.000000     0.000000     0.000000     0.000000
    9     1.000000   179.999999     0.500000    -0.866025     0.000000     0.000000     0.000000     0.000000
   10    -1.000000   179.999999     0.500000    -0.866025     0.000000     0.000000     0.000000     0.000000
   11     1.000000   180.000000    -0.500000    -0.866025     0.000000     0.000000     0.000000     0.000000
   12    -1.000000   180.000000    -0.500000    -0.866025     0.000000     0.000000     0.000000     0.000000
   13     1.000000    60.000000     0.000000     0.000000    -1.000000     0.000001     0.000000     0.500000
   14    -1.000000    60.000000     0.000000    -0.000000    -1.000000     0.000001     0.000000     0.500000
   15     1.000000   180.000000     0.000000     0.000000     1.000000     0.000000     0.000000     0.500000
   16    -1.000000   180.000000     0.000000     0.000000     1.000000     0.000000     0.000000     0.500000
   17     1.000000    60.000000     0.000000     0.000000     1.000000     0.000000     0.000000     0.500000
   18    -1.000000    60.000000     0.000000     0.000000     1.000000     0.000000     0.000000     0.500000
   19     1.000000   180.000000     0.866026    -0.500000     0.000000     0.000000     0.000000     0.500000
   20    -1.000000   180.000000     0.866026    -0.500000     0.000000    -0.000000     0.000000     0.500000
   21     1.000000   180.000000     0.000000     1.000000     0.000000     0.000001     0.000000     0.500000
   22    -1.000000   180.000000     0.000000     1.000000     0.000000     0.000001     0.000000     0.500000
   23     1.000000   180.000000     0.866025     0.500000     0.000000     0.000000     0.000000     0.500000
   24    -1.000000   180.000000     0.866025     0.500000     0.000000     0.000000     0.000000     0.500000

 Subroutine IBZKPT returns following result:

 Found    111 irreducible k-points:

 Following reciprocal coordinates:
            Coordinates               Weight
  0.000000  0.000000  0.000000      1.000000
  0.055556  0.000000  0.000000      6.000000
  0.111111  0.000000  0.000000      6.000000
  0.166667  0.000000  0.000000      6.000000
  0.222222  0.000000  0.000000      6.000000
  0.277778  0.000000  0.000000      6.000000
  0.333333  0.000000  0.000000      6.000000
  0.388889  0.000000  0.000000      6.000000
  0.444444  0.000000  0.000000      6.000000
  0.500000  0.000000  0.000000      3.000000
  0.055556  0.055556  0.000000      6.000000
  0.111111  0.055556  0.000000     12.000000
  0.166667  0.055556  0.000000     12.000000
  0.222222  0.055556  0.000000     12.000000
  0.277778  0.055556  0.000000     12.000000
  0.333333  0.055556  0.000000     12.000000
  0.388889  0.055556  0.000000     12.000000
  0.444444  0.055556  0.000000     12.000000
  0.111111  0.111111  0.000000      6.000000
  0.166667  0.111111  0.000000     12.000000
  0.222222  0.111111  0.000000     12.000000
  0.277778  0.111111  0.000000     12.000000
  0.333333  0.111111  0.000000     12.000000
  0.388889  0.111111  0.000000     12.000000
  0.444444  0.111111  0.000000      6.000000
  0.166667  0.166667  0.000000      6.000000
  0.222222  0.166667  0.000000     12.000000
  0.277778  0.166667  0.000000     12.000000
  0.333333  0.166667  0.000000     12.000000
  0.388889  0.166667  0.000000     12.000000
  0.222222  0.222222  0.000000      6.000000
  0.277778  0.222222  0.000000     12.000000
  0.333333  0.222222  0.000000     12.000000
  0.388889  0.222222  0.000000      6.000000
  0.277778  0.277778  0.000000      6.000000
  0.333333  0.277778  0.000000     12.000000
  0.333333  0.333333  0.000000      2.000000
  0.000000  0.000000  0.250000      2.000000
  0.055556  0.000000  0.250000     12.000000
  0.111111  0.000000  0.250000     12.000000
  0.166667  0.000000  0.250000     12.000000
  0.222222  0.000000  0.250000     12.000000
  0.277778  0.000000  0.250000     12.000000
  0.333333  0.000000  0.250000     12.000000
  0.388889  0.000000  0.250000     12.000000
  0.444444  0.000000  0.250000     12.000000
  0.500000  0.000000  0.250000      6.000000
  0.055556  0.055556  0.250000     12.000000
  0.111111  0.055556  0.250000     24.000000
  0.166667  0.055556  0.250000     24.000000
  0.222222  0.055556  0.250000     24.000000
  0.277778  0.055556  0.250000     24.000000
  0.333333  0.055556  0.250000     24.000000
  0.388889  0.055556  0.250000     24.000000
  0.444444  0.055556  0.250000     24.000000
  0.111111  0.111111  0.250000     12.000000
  0.166667  0.111111  0.250000     24.000000
  0.222222  0.111111  0.250000     24.000000
  0.277778  0.111111  0.250000     24.000000
  0.333333  0.111111  0.250000     24.000000
[...]
  0.333333  0.111111  0.500000     12.000000
  0.388889  0.111111  0.500000     12.000000
  0.444444  0.111111  0.500000      6.000000
  0.166667  0.166667  0.500000      6.000000
  0.222222  0.166667  0.500000     12.000000
  0.277778  0.166667  0.500000     12.000000
  0.333333  0.166667  0.500000     12.000000
  0.388889  0.166667  0.500000     12.000000
  0.222222  0.222222  0.500000      6.000000
  0.277778  0.222222  0.500000     12.000000
  0.333333  0.222222  0.500000     12.000000
  0.388889  0.222222  0.500000      6.000000
  0.277778  0.277778  0.500000      6.000000
  0.333333  0.277778  0.500000     12.000000
  0.333333  0.333333  0.500000      2.000000

 Following cartesian coordinates:
            Coordinates               Weight
  0.000000  0.000000  0.000000      1.000000
  0.022517  0.013000  0.000000      6.000000
  0.045034  0.026000  0.000000      6.000000
  0.067550  0.039000  0.000000      6.000000
  0.090067  0.052000  0.000000      6.000000
  0.112584  0.065000  0.000000      6.000000
  0.135101  0.078001  0.000000      6.000000
  0.157618  0.091001  0.000000      6.000000
  0.180135  0.104001  0.000000      6.000000
  0.202651  0.117001  0.000000      3.000000
  0.022517  0.039000  0.000000      6.000000
  0.045034  0.052000  0.000000     12.000000
  0.067550  0.065000  0.000000     12.000000
  0.090067  0.078001  0.000000     12.000000
  0.112584  0.091001  0.000000     12.000000
  0.135101  0.104001  0.000000     12.000000
  0.157618  0.117001  0.000000     12.000000
  0.180135  0.130001  0.000000     12.000000
  0.045034  0.078001  0.000000      6.000000
  0.067550  0.091001  0.000000     12.000000
  0.090067  0.104001  0.000000     12.000000
  0.112584  0.117001  0.000000     12.000000
  0.135101  0.130001  0.000000     12.000000
  0.157618  0.143001  0.000000     12.000000
  0.180135  0.156001  0.000000      6.000000
  0.067550  0.117001  0.000000      6.000000
  0.090067  0.130001  0.000000     12.000000
  0.112584  0.143001  0.000000     12.000000
  0.135101  0.156001  0.000000     12.000000
  0.157618  0.169001  0.000000     12.000000
  0.090067  0.156001  0.000000      6.000000
  0.112584  0.169001  0.000000     12.000000
  0.135101  0.182001  0.000000     12.000000
  0.157618  0.195001  0.000000      6.000000
  0.112584  0.195001  0.000000      6.000000
  0.135101  0.208002  0.000000     12.000000
  0.135101  0.234002  0.000000      2.000000
  0.000000  0.000000  0.032039      2.000000
  0.022517  0.013000  0.032039     12.000000
  0.045034  0.026000  0.032039     12.000000
  0.067550  0.039000  0.032039     12.000000
  0.090067  0.052000  0.032039     12.000000
  0.112584  0.065000  0.032039     12.000000
  0.135101  0.078001  0.032039     12.000000
  0.157618  0.091001  0.032039     12.000000
  0.180135  0.104001  0.032039     12.000000
  0.202651  0.117001  0.032039      6.000000
  0.022517  0.039000  0.032039     12.000000
  0.045034  0.052000  0.032039     24.000000
  0.067550  0.065000  0.032039     24.000000
  0.090067  0.078001  0.032039     24.000000
  0.112584  0.091001  0.032039     24.000000
[...]
 k-point 39 :   0.0556 0.0000 0.2500  plane waves:     719
 k-point 40 :   0.1111 0.0000 0.2500  plane waves:     722
 k-point 41 :   0.1667 0.0000 0.2500  plane waves:     732
 k-point 42 :   0.2222 0.0000 0.2500  plane waves:     741
 k-point 43 :   0.2778 0.0000 0.2500  plane waves:     748
 k-point 44 :   0.3333 0.0000 0.2500  plane waves:     748
 k-point 45 :   0.3889 0.0000 0.2500  plane waves:     752
 k-point 46 :   0.4444 0.0000 0.2500  plane waves:     745
 k-point 47 :   0.5000 0.0000 0.2500  plane waves:     744
 k-point 48 :   0.0556 0.0556 0.2500  plane waves:     720
 k-point 49 :   0.1111 0.0556 0.2500  plane waves:     728
 k-point 50 :   0.1667 0.0556 0.2500  plane waves:     736
 k-point 51 :   0.2222 0.0556 0.2500  plane waves:     743
 k-point 52 :   0.2778 0.0556 0.2500  plane waves:     749
 k-point 53 :   0.3333 0.0556 0.2500  plane waves:     749
 k-point 54 :   0.3889 0.0556 0.2500  plane waves:     754
 k-point 55 :   0.4444 0.0556 0.2500  plane waves:     755
 k-point 56 :   0.1111 0.1111 0.2500  plane waves:     740
 k-point 57 :   0.1667 0.1111 0.2500  plane waves:     745
 k-point 58 :   0.2222 0.1111 0.2500  plane waves:     750
 k-point 59 :   0.2778 0.1111 0.2500  plane waves:     753
 k-point 60 :   0.3333 0.1111 0.2500  plane waves:     754
[...]
 k-point 85 :   0.0556 0.0556 0.5000  plane waves:     716
 k-point 86 :   0.1111 0.0556 0.5000  plane waves:     730
 k-point 87 :   0.1667 0.0556 0.5000  plane waves:     734
 k-point 88 :   0.2222 0.0556 0.5000  plane waves:     740
 k-point 89 :   0.2778 0.0556 0.5000  plane waves:     744
 k-point 90 :   0.3333 0.0556 0.5000  plane waves:     754
 k-point 91 :   0.3889 0.0556 0.5000  plane waves:     756
 k-point 92 :   0.4444 0.0556 0.5000  plane waves:     760
 k-point 93 :   0.1111 0.1111 0.5000  plane waves:     730
 k-point 94 :   0.1667 0.1111 0.5000  plane waves:     744
 k-point 95 :   0.2222 0.1111 0.5000  plane waves:     750
 k-point 96 :   0.2778 0.1111 0.5000  plane waves:     756
 k-point 97 :   0.3333 0.1111 0.5000  plane waves:     756
 k-point 98 :   0.3889 0.1111 0.5000  plane waves:     758
 k-point 99 :   0.4444 0.1111 0.5000  plane waves:     754
 k-point ** :   0.1667 0.1667 0.5000  plane waves:     752
 k-point ** :   0.2222 0.1667 0.5000  plane waves:     754
 k-point ** :   0.2778 0.1667 0.5000  plane waves:     752
 k-point ** :   0.3333 0.1667 0.5000  plane waves:     760
 k-point ** :   0.3889 0.1667 0.5000  plane waves:     758
 k-point ** :   0.2222 0.2222 0.5000  plane waves:     754
 k-point ** :   0.2778 0.2222 0.5000  plane waves:     750
 k-point ** :   0.3333 0.2222 0.5000  plane waves:     758
 k-point ** :   0.3889 0.2222 0.5000  plane waves:     750
 k-point ** :   0.2778 0.2778 0.5000  plane waves:     748
 k-point ** :   0.3333 0.2778 0.5000  plane waves:     748
 k-point ** :   0.3333 0.3333 0.5000  plane waves:     744

 maximum and minimum number of plane-waves per node :       200      162

 maximum number of plane-waves:       760
 maximum index in each direction:
   IXMAX=    4   IYMAX=    4   IZMAX=   12
   IXMIN=   -4   IYMIN=   -4   IZMIN=  -13

 parallel 3D FFT for wavefunctions:
    minimum data exchange during FFTs selected (reduces bandwidth)
 parallel 3D FFT for charge:
    minimum data exchange during FFTs selected (reduces bandwidth)

 Broyden mixing: mesh for mixing (old mesh)
   NGX =  9   NGY =  9   NGZ = 25
  (NGX  = 32   NGY  = 32   NGZ  =108)
  gives a total of   2025 points

 charge density for first step will be calculated from the start-wavefunctions

 Maximum index for augmentation-charges           281 (set IRDMAX)

 initial charge from wavefunction
 First call to EWALD:  gamma=   0.513
 Maximum number of real-space cells 4x 4x 1
 Maximum number of reciprocal cells 2x 2x 6

--------------------------------------- Iteration      1(   1)  ---------------------------------------

 BZINTS: Fermi energy:-23.008278; 16.000000 electrons
         Band energy:-602.553935;  BLOECHL correction: -0.139307

 eigenvalue-minimisations  : 10632
 total energy-change (2. order) :-0.3098092E+03  (-0.1206711E+04)
 number of electron      16.0000000 magnetization       0.0000000
 augmentation part       -0.0628274 magnetization      -0.0025461

 Free energy of the ion-electron system (eV)
  alpha Z        PSCENC =        31.69091381
  Ewald energy   TEWEN  =      -360.71913134
  -Hartree energ DENC   =       -11.24567701
  -exchange      EXHF   =         0.00000000
  -V(xc)+E(xc)   XCENC  =        45.98753402
  PAW double counting   =        11.88648395      -13.36428932
  entropy T*S    EENTRO =         0.00000000
  eigenvalues    EBANDS =      -602.55393538
  atomic energy  EATOM  =       588.50889549
  Solvation  Ediel_sol  =         0.00000000
  free energy    TOTEN  =      -309.80920578 eV

  energy without entropy =     -309.80920578  energy(sigma->0) =     -309.80920578

[...]

 Broyden mixing:
  rms(total) = 0.49633E+01    rms(broyden)= 0.49602E+01
  rms(prec ) = 0.94050E+01
  weight for this iteration     100.00

[...]

 BZINTS: Fermi energy:-14.405030; 16.000000 electrons
         Band energy:-448.007044;  BLOECHL correction:  0.000000

 eigenvalue-minimisations  :  7104
 total energy-change (2. order) : 0.1984652E+03  (-0.4864896E+01)
 number of electron      15.9999997 magnetization      -0.0000000
 augmentation part        0.6022379 magnetization       0.0000355

[...]

 eigenvalues of (default mixing * dielectric matrix)
  average eigenvalue GAMMA=   2.1822
  2.1822

[...]

 BZINTS: Fermi energy:  3.185323; 16.000000 electrons
         Band energy: -96.424178;  BLOECHL correction:  0.000000

[...]

 BZINTS: Fermi energy:  2.156794; 16.000000 electrons
         Band energy:-120.357691;  BLOECHL correction: -0.000021

[...]

 Broyden mixing:
  rms(total) = 0.16537E-03    rms(broyden)= 0.16238E-03
  rms(prec ) = 0.20382E-03
  weight for this iteration     100.00

[...]

 Free energy of the ion-electron system (eV)
  alpha Z        PSCENC =        31.69091381
  Ewald energy   TEWEN  =      -360.71913134
  -Hartree energ DENC   =      -257.83601262
  -exchange      EXHF   =         0.00000000
  -V(xc)+E(xc)   XCENC  =        57.53031073
  PAW double counting   =       278.61425622     -283.75189219
  entropy T*S    EENTRO =         0.00000000
  eigenvalues    EBANDS =       -90.94902429
  atomic energy  EATOM  =       588.50889549
  Solvation  Ediel_sol  =         0.00000000
  free energy    TOTEN  =       -36.91168421 eV

  energy without entropy =      -36.91168421  energy(sigma->0) =      -36.91168421

 average (electrostatic) potential at core
  the test charge radii are     0.6991
  (the norm of the test charge is              1.0000)
       1 -52.0041       2 -52.0041       3 -51.9982       4 -51.9982

 E-fermi :   3.4441     XC(G=0):  -9.2743     alpha+bet : -9.7614

 spin component 1

 k-point     1 :       0.0000    0.0000    0.0000
  band No.  band energies     occupation
      1     -16.0991      1.00000
      2     -16.0153      1.00000
      3      -4.5673      1.00000
      4      -3.7193      1.00000
      5       0.4178      1.00000
      6       0.4178      1.00000
      7       0.4230      1.00000
      8       0.4231      1.00000
      9       6.8459      0.00000
     10      11.0638      0.00000
     11      11.7748      0.00000
     12      11.7748      0.00000
     13      11.7923      0.00000
     14      11.7924      0.00000
     15      14.8529      0.00000
     16      14.8908      0.00000

[...]

 spin component 2

[...]

 k-point   111 :       0.3333    0.3333    0.5000
  band No.  band energies     occupation
      1      -9.1441      1.00000
      2      -9.1441      1.00000
      3      -9.1397      1.00000
      4      -9.1397      1.00000
      5      -7.0866      1.00000
      6      -7.0866      1.00000
      7       3.4383      1.00000
      8       3.4383      0.99859
      9       3.4536      0.00000
     10       3.4536      0.00000
     11      13.7753      0.00000
     12      13.7753      0.00000
     13      16.6606      0.00000
     14      16.6606      0.00000
     15      17.5721      0.00000
     16      17.5760      0.00000

 soft charge-density along one line, spin component            1
         0         1         2         3         4         5         6         7         8         9
 total charge-density along one line

 soft charge-density along one line, spin component            2
         0         1         2         3         4         5         6         7         8         9
 total charge-density along one line

------------------------ aborting loop because EDIFF is reached ----------------------------------------

 total charge

# of ion       s       p       d       tot
    1        0.867   1.788   0.000   2.655
    2        0.867   1.788   0.000   2.655
    3        0.867   1.787   0.000   2.653
    4        0.867   1.791   0.000   2.658
tot          3.468   7.154   0.000  10.622

 magnetization (x)

[...]

  FORCE on cell =-STRESS in cart. coord.  units (eV):
  Direction    XX          YY          ZZ          XY          YZ          ZX
  Alpha Z    31.69091    31.69091    31.69091
  Ewald     176.78150   176.78084  -714.28195    -0.00051     0.00000     0.00000
  Hartree   235.22240   235.22240  -212.60857    -0.00001    -0.00000     0.00000
  E(xc)     -58.35007   -58.35007   -60.65001    -0.00000     0.00000    -0.00000
  Local    -610.12347  -610.12322   694.88787     0.00023     0.00000    -0.00000
  n-local   -13.46039   -14.53546   -12.77388    -0.64385     0.00585     0.00487
  augment    -1.53344    -1.53339    -1.40794     0.00004     0.00000     0.00000
  Kinetic   235.89504   244.00692   274.69831     6.41841    -0.07933    -0.08882
  Fock        0.00000     0.00000     0.00000     0.00000     0.00000     0.00000
  Total      -0.35929    -0.35929    -0.44526     0.00000    -0.00000     0.00000
  in kB     -13.99331   -13.99331   -17.34163     0.00000    -0.00000     0.00000

 VOLUME and BASIS-vectors are now :
  energy-cutoff  :      400.00
  volume of cell :       41.14
      direct lattice vectors                 reciprocal lattice vectors
     2.467291000  0.000000000  0.000000000     0.405302820  0.234001753 -0.000000000
    -1.233646000  2.136737000  0.000000000     0.000000000  0.468003315  0.000000000
     0.000000000  0.000000000  7.803073000     0.000000000 -0.000000000  0.128154639

  length of vectors
     2.467291000  2.467291523  7.803073000     0.468003415  0.468003315  0.128154639

 FORCES acting on ions
    electron-ion (+dipol)            ewald-force                    non-local-force                 convergence-correction
   -.875E-04 0.223E-04 0.541E-06   -.168E-03 0.159E-03 -.197E-13   0.416E-16 -.139E-15 0.542E-19   -.147E-07 0.831E-08 0.583E-10
   -.519E-04 0.582E-04 0.541E-06   0.168E-03 -.159E-03 0.197E-13   -.555E-16 0.139E-15 0.542E-19   0.160E-07 -.905E-08 0.583E-10
   0.130E-03 -.466E-04 -.303E-06   0.168E-03 -.159E-03 -.196E-13   -.416E-16 -.153E-15 0.000E+00   -.140E-07 0.787E-08 0.488E-10
   -.371E-03 0.186E-03 -.303E-06   -.168E-03 0.159E-03 0.196E-13   -.555E-16 0.125E-15 0.000E+00   0.125E-07 -.696E-08 0.488E-10
   -.381E-03 0.220E-03 0.475E-06   -.178E-14 -.542E-14 0.328E-19   -.111E-15 -.278E-16 0.108E-18   -.298E-09 0.172E-09 0.214E-09

 POSITION                                       TOTAL-FORCE (eV/Angst)
      0.00000      0.00000      1.95077        -0.000000      0.000000      0.000000
      0.00000      0.00000      5.85230        -0.000000     -0.000000      0.000000
     -0.00000      1.42449      1.95077         0.000000      0.000000      0.000000
      1.23365      0.71224      5.85230         0.000000     -0.000000      0.000000
    total drift:                               -0.000381      0.000220      0.000000

  FREE ENERGIE OF THE ION-ELECTRON SYSTEM (eV)
  free  energy   TOTEN  =       -36.91168421 eV

  energy  without entropy=      -36.91168421  energy(sigma->0) =      -36.91168421
  enthalpy is  TOTEN    =       -24.07370888 eV   P V=       12.83797533

[...]

  free energy =  -0.369132279928E+02  energy without entropy=  -0.369132279928E+02

[...]

 d Force = 0.0000000E+00[ 0.000E+00, 0.000E+00]  d Energy = 0.1823248E+00-0.182E+00
 d Force = 0.0000000E+00[ 0.000E+00, 0.000E+00]  d Ewald  = 0.1753143E+01-0.175E+01

 Steepest descent step on ions:
 trial-energy change:   -0.182325  1 .order   -0.181865   -0.189876   -0.173853
  (g-gl).g = 0.190E+00      g.g   = 0.190E+00  gl.gl    = 0.000E+00
 g(Force)  = 0.264E-42   g(Stress)= 0.190E+00 ortho     = 0.000E+00
 gamma     =   0.00000
 trial     =   1.00000
 opt step  =   4.00000  (harmonic =  11.85064) maximal distance =0.00000000
 next E    =   -24.776770   (d E  =  -0.70306)

[...]

 Conjugate gradient step on ions:
 trial-energy change:   -0.192411  1 .order   -0.190898   -0.193285   -0.188511
  (g-gl).g = 0.662E-01      g.g   = 0.652E-01  gl.gl    = 0.190E+00
 g(Force)  = 0.537E-42   g(Stress)= 0.652E-01 ortho     =-0.107E-02
 gamma     =   0.34889
 trial     =   2.98238
 opt step  =  11.92950  (harmonic = 120.74820) maximal distance =0.00000000
 next E    =   -29.069632   (d E  =  -3.91280)

[...]

 d Force = 0.0000000E+00[ 0.000E+00, 0.000E+00]  d Energy = 0.1695240E+00-0.170E+00
 d Force = 0.0000000E+00[ 0.000E+00, 0.000E+00]  d Ewald  =-0.5988930E+02 0.599E+02

[...]

 d Force = 0.0000000E+00[ 0.000E+00, 0.000E+00]  d Energy = 0.5653403E-02-0.565E-02
 d Force = 0.0000000E+00[ 0.000E+00, 0.000E+00]  d Ewald  =-0.3732360E+01 0.373E+01

 Conjugate gradient step on ions:
 trial-energy change:   -0.005653  1 .order   -0.005840   -0.028487    0.016807
  (g-gl).g =-0.386E-02      g.g   = 0.209E-02  gl.gl    = 0.652E-01
 g(Force)  = 0.234E-42   g(Stress)= 0.209E-02 ortho     =-0.669E-04
 gamma     =  -0.05915
 trial     =  13.62687
 opt step  =   8.49128  (harmonic =   8.57048) maximal distance =0.00000000
 next E    =   -27.864961   (d E  =  -0.00883)

[...]

 eigenvalue-minimisations  :  8464
 total energy-change (2. order) : 0.1440984E-03  (-0.2153698E-04)
 number of electron      15.9999997 magnetization      -0.0000003
 augmentation part        0.4122096 magnetization      -0.0000003

 eigenvalues of (default mixing * dielectric matrix)
  average eigenvalue GAMMA=   1.7680
  1.4064  2.1296

[...]

--------------------------------------- Iteration     14(   4)  ---------------------------------------

[...]

 eigenvalue-minimisations  :  8320
 total energy-change (2. order) :-0.6466994E-06  (-0.6044612E-06)
 number of electron      15.9999997 magnetization      -0.0000003
 augmentation part        0.4122096 magnetization      -0.0000003

  free energy =  -0.357558853064E+02  energy without entropy=  -0.357558853064E+02

------------------------ aborting loop because EDIFF is reached ----------------------------------------

[...]

  FORCE on cell =-STRESS in cart. coord.  units (eV):
  Direction    XX          YY          ZZ          XY          YZ          ZX
  Alpha Z    51.55876    51.55876    51.55876
  Ewald     -59.54522   -59.54593  -494.80215    -0.00050    -0.00000     0.00000
  Hartree    74.28731    74.28730   -53.26010    -0.00001    -0.00000     0.00000
  E(xc)     -60.09894   -60.09894   -61.62387    -0.00000     0.00000    -0.00000
  Local    -230.71387  -230.71362   295.47472     0.00024     0.00000    -0.00000
  n-local   -14.89818   -15.86776   -14.25540    -1.29997     0.05736     0.11763
  augment    -1.75094    -1.75090    -1.55219     0.00003     0.00000     0.00000
  Kinetic   246.64341   252.47221   286.31010     7.64861    -0.61713    -1.43999
  Fock        0.00000     0.00000     0.00000     0.00000     0.00000     0.00000
  Total       7.91174     7.91174     7.84986    -0.00000     0.00000     0.00000
  in kB     501.31777   501.31803   497.39702    -0.00020     0.00000     0.00000

  FREE ENERGIE OF THE ION-ELECTRON SYSTEM (eV)
  free  energy   TOTEN  =       -35.75588531 eV

  energy  without entropy=      -35.75588531  energy(sigma->0) =      -35.75588531
  enthalpy is  TOTEN    =       -27.86494380 eV   P V=        7.89094151

 d Force = 0.0000000E+00[ 0.000E+00, 0.000E+00]  d Energy = 0.3159854E-02-0.316E-02
 d Force = 0.0000000E+00[ 0.000E+00, 0.000E+00]  d Ewald  = 0.1401838E+01-0.140E+01

 reached required accuracy - stopping structural energy minimisation

 total charge

[...]

 magnetization (x)

# of ion       s       p       d       tot
    1       -0.000   0.000   0.000  -0.000
    2       -0.000   0.000   0.000  -0.000
    3       -0.000  -0.000   0.000  -0.000
    4       -0.000  -0.000   0.000  -0.000
tot         -0.000   0.000   0.000  -0.000

 BZINTS: Fermi energy:  7.961982; 16.000000 electrons
         Band energy: -20.679182;  BLOECHL correction: -0.001027