 vasp.5.4.4.18Apr17-6-g9f103f2a35 (build Jul  5 2023 12:24:19) complex
 executed on NVIDIA22.7_CrayMPICH date 2023.10.17  09:01:54

 INCAR:
 POTCAR:   PAW_PBE C 08Apr2002

 POTCAR:   PAW_PBE C 08Apr2002

 PAW_PBE C 08Apr2002                    :

 POSCAR: generated by phonopy
  positions in direct lattice
 exchange correlation table for  LEXCH =        8
   RHO(1)=    0.500       N(1)  =     2000
   RHO(2)=  100.500       N(2)  =     4000

 ion  position               nearest neighbor table
   1  0.378  0.378  0.378-  25 1.52   9 1.52  33 1.52  17 1.52
   2  0.878  0.378  0.378-  26 1.52  10 1.52  34 1.52  18 1.52
   3  0.378  0.878  0.378-  27 1.52  11 1.52  35 1.52  19 1.52
   4  0.878  0.878  0.378-  28 1.52  12 1.52  36 1.52  20 1.52
   5  0.378  0.378  0.878-  29 1.52  13 1.52  37 1.52  21 1.52
   6  0.878  0.378  0.878-  30 1.52  14 1.52  38 1.52  22 1.52
   7  0.378  0.878  0.878-  31 1.52  15 1.52  39 1.52  23 1.52
   8  0.878  0.878  0.878-  32 1.52  16 1.52  40 1.52  24 1.52
   9  0.503  0.253  0.503-   1 1.52  45 1.52  50 1.52  62 1.52
  10  0.003  0.253  0.503-   2 1.52  46 1.52  49 1.52  61 1.52
  11  0.503  0.753  0.503-   3 1.52  47 1.52  52 1.52  64 1.52
  12  0.003  0.753  0.503-   4 1.52  48 1.52  51 1.52  63 1.52
  13  0.503  0.253  0.003-   5 1.52  41 1.52  54 1.52  58 1.52
  14  0.003  0.253  0.003-   6 1.52  42 1.52  53 1.52  57 1.52
  15  0.503  0.753  0.003-   7 1.52  43 1.52  56 1.52  60 1.52
  16  0.003  0.753  0.003-   8 1.52  44 1.52  55 1.52  59 1.52
  17  0.253  0.253  0.253-   1 1.52  41 1.52  49 1.52  57 1.52
  18  0.753  0.253  0.253-   2 1.52  42 1.52  50 1.52  58 1.52
  19  0.253  0.753  0.253-   3 1.52  43 1.52  51 1.52  59 1.52
  20  0.753  0.753  0.253-   4 1.52  44 1.52  52 1.52  60 1.52
  21  0.253  0.253  0.753-   5 1.52  45 1.52  53 1.52  61 1.52
  22  0.753  0.253  0.753-   6 1.52  46 1.52  54 1.52  62 1.52
  23  0.253  0.753  0.753-   7 1.52  47 1.52  55 1.52  63 1.52
  24  0.753  0.753  0.753-   8 1.52  48 1.52  56 1.52  64 1.52
  25  0.503  0.503  0.253-   1 1.52  43 1.52  58 1.52  52 1.52
  26  0.003  0.503  0.253-   2 1.52  44 1.52  57 1.52  51 1.52
  27  0.503  0.003  0.253-   3 1.52  41 1.52  60 1.52  50 1.52
  28  0.003  0.003  0.253-   4 1.52  42 1.52  59 1.52  49 1.52
  29  0.503  0.503  0.753-   5 1.52  47 1.52  62 1.52  56 1.52
  30  0.003  0.503  0.753-   6 1.52  48 1.52  61 1.52  55 1.52
  31  0.503  0.003  0.753-   7 1.52  45 1.52  64 1.52  54 1.52
  32  0.003  0.003  0.753-   8 1.52  46 1.52  63 1.52  53 1.52
  33  0.253  0.503  0.503-   1 1.52  51 1.52  61 1.52  47 1.52
  34  0.753  0.503  0.503-   2 1.52  52 1.52  62 1.52  48 1.52
  35  0.253  0.003  0.503-   3 1.52  49 1.52  63 1.52  45 1.52
  36  0.753  0.003  0.503-   4 1.52  50 1.52  64 1.52  46 1.52
  37  0.253  0.503  0.003-   5 1.52  55 1.52  57 1.52  43 1.52
  38  0.753  0.503  0.003-   6 1.52  56 1.52  58 1.52  44 1.52
  39  0.253  0.003  0.003-   7 1.52  53 1.52  59 1.52  41 1.52
  40  0.753  0.003  0.003-   8 1.52  54 1.52  60 1.52  42 1.52
  41  0.378  0.128  0.128-  17 1.52  27 1.52  13 1.52  39 1.52
  42  0.878  0.128  0.128-  18 1.52  28 1.52  14 1.52  40 1.52
  43  0.378  0.628  0.128-  19 1.52  25 1.52  15 1.52  37 1.52
  44  0.878  0.628  0.128-  20 1.52  26 1.52  16 1.52  38 1.52
  45  0.378  0.128  0.628-  21 1.52  31 1.52   9 1.52  35 1.52
  46  0.878  0.128  0.628-  22 1.52  32 1.52  10 1.52  36 1.52
  47  0.378  0.628  0.628-  23 1.52  29 1.52  11 1.52  33 1.52
  48  0.878  0.628  0.628-  24 1.52  30 1.52  12 1.52  34 1.52
  49  0.128  0.128  0.378-  17 1.52  10 1.52  35 1.52  28 1.52
  50  0.628  0.128  0.378-  18 1.52   9 1.52  36 1.52  27 1.52
  51  0.128  0.628  0.378-  19 1.52  12 1.52  33 1.52  26 1.52
  52  0.628  0.628  0.378-  20 1.52  11 1.52  34 1.52  25 1.52
  53  0.128  0.128  0.878-  21 1.52  14 1.52  39 1.52  32 1.52
  54  0.628  0.128  0.878-  22 1.52  13 1.52  40 1.52  31 1.52
  55  0.128  0.628  0.878-  23 1.52  16 1.52  37 1.52  30 1.52
  56  0.628  0.628  0.878-  24 1.52  15 1.52  38 1.52  29 1.52
  57  0.128  0.378  0.128-  17 1.52  26 1.52  37 1.52  14 1.52
  58  0.628  0.378  0.128-  18 1.52  25 1.52  38 1.52  13 1.52
  59  0.128  0.878  0.128-  19 1.52  28 1.52  39 1.52  16 1.52
  60  0.628  0.878  0.128-  20 1.52  27 1.52  40 1.52  15 1.52
  61  0.128  0.378  0.628-  21 1.52  30 1.52  33 1.52  10 1.52
  62  0.628  0.378  0.628-  22 1.52  29 1.52  34 1.52   9 1.52
  63  0.128  0.878  0.628-  23 1.52  32 1.52  35 1.52  12 1.52
  64  0.628  0.878  0.628-  24 1.52  31 1.52  36 1.52  11 1.52

  LATTYP: Found a simple cubic cell.
 ALAT       =     7.0237740000

  Lattice vectors:

 A1 = (   7.0237740000,   0.0000000000,   0.0000000000)
 A2 = (   0.0000000000,   7.0237740000,   0.0000000000)
 A3 = (   0.0000000000,   0.0000000000,   7.0237740000)

Analysis of symmetry for initial positions (statically):
 Subroutine PRICEL returns following result:

  LATTYP: Found a face centered cubic cell.
 ALAT       =     3.5118940238

[...]

  32 primitive cells build up your supercell.

 Routine SETGRP: Setting up the symmetry group for a
 simple cubic supercell.

 Subroutine GETGRP returns: Found 48 space group operations
 (whereof  6 operations were pure point group operations)
 out of a pool of 48 trial point group operations.

The static configuration has the point symmetry C_3v.
 The point group associated with its full space group is O_h .

Analysis of symmetry for dynamics (positions and initial velocities):
 Subroutine PRICEL returns following result:

[...]

The dynamic configuration has the point symmetry C_3v.
 The point group associated with its full space group is O_h .

Analysis of structural, dynamic, and magnetic symmetry:
 Subroutine PRICEL returns following result:

[...]

The magnetic configuration has the point symmetry C_3v.
 The point group associated with its full space group is O_h .

 Subroutine INISYM returns: Found 48 space group operations
 (whereof  6 operations are pure point group operations),
 and found    32 'primitive' translations

 KPOINTS: kpt_density=500

Automatic generation of k-mesh.
Space group operators:
 irot       det(A)        alpha          n_x          n_y          n_z        tau_x        tau_y        tau_z
    1     1.000000     0.000000     1.000000     0.000000     0.000000     0.000000     0.000000    -0.000000
    2     1.000000   120.000000    -0.577350    -0.577350    -0.577350     0.000000     0.000000    -0.000000
    3     1.000000   120.000000     0.577350     0.577350     0.577350     0.000000     0.000000    -0.000000
    4    -1.000000   180.000000     0.000000    -0.707107     0.707107     0.000000     0.000000    -0.000000
    5    -1.000000   180.000000     0.707107    -0.707107     0.000000     0.000000     0.000000    -0.000000
    6    -1.000000   180.000000     0.707107     0.000000    -0.707107     0.000000     0.000000    -0.000000
    7    -1.000000     0.000000     1.000000     0.000000     0.000000     0.381697     0.381697    -0.368305
    8    -1.000000   120.000000    -0.577350    -0.577350    -0.577350     0.381697     0.381697    -0.368305
    9    -1.000000   120.000000     0.577350     0.577350     0.577350     0.381697     0.381697    -0.368305
   10     1.000000    90.000000     0.000000     0.000000    -1.000000     0.381697     0.375001    -0.375001
   11    -1.000000    90.000000     0.000000     0.000000    -1.000000     0.250001     0.006696    -0.243306
   12     1.000000   180.000000     0.000000     0.707107     0.707107     0.381697     0.375001    -0.375001
   13    -1.000000   180.000000     0.000000     0.707107     0.707107     0.250001     0.006696    -0.243306
   14     1.000000    90.000000     0.000000     1.000000     0.000000     0.381697     0.375001    -0.375001
   15    -1.000000    90.000000     0.000000     1.000000     0.000000     0.250001     0.006696    -0.243306
   16     1.000000   180.000000     0.000000     0.000000     1.000000     0.256697     0.256697    -0.500001
   17    -1.000000   180.000000     0.000000     0.000000     1.000000     0.375001     0.375001    -0.368305
   18     1.000000   120.000000    -0.577350     0.577350     0.577350     0.256697     0.256697    -0.500001
   19    -1.000000   120.000000    -0.577350     0.577350     0.577350     0.375001     0.375001    -0.368305
   20     1.000000   120.000000    -0.577350     0.577350    -0.577350     0.256697     0.256697    -0.500001
   21    -1.000000   120.000000    -0.577350     0.577350    -0.577350     0.375001     0.375001    -0.368305
   22     1.000000    90.000000     0.000000     0.000000     1.000000     0.375001     0.381697    -0.375001
   23    -1.000000    90.000000     0.000000     0.000000     1.000000     0.256697     0.250001    -0.493305
   24     1.000000    90.000000    -1.000000     0.000000     0.000000     0.375001     0.381697    -0.375001
   25    -1.000000    90.000000    -1.000000     0.000000     0.000000     0.256697     0.250001    -0.493305
   26     1.000000   180.000000     0.707107     0.000000     0.707107     0.375001     0.381697    -0.375001
   27    -1.000000   180.000000     0.707107     0.000000     0.707107     0.256697     0.250001    -0.493305
   28     1.000000   120.000000     0.577350    -0.577350     0.577350     0.250001     0.006696    -0.243306
   29    -1.000000   120.000000     0.577350    -0.577350     0.577350     0.381697     0.375001    -0.375001
   30     1.000000   120.000000    -0.577350    -0.577350     0.577350     0.250001     0.006696    -0.243306
   31    -1.000000   120.000000    -0.577350    -0.577350     0.577350     0.381697     0.375001    -0.375001
   32     1.000000   180.000000     1.000000     0.000000     0.000000     0.250001     0.006696    -0.243306
   33    -1.000000   180.000000     1.000000     0.000000     0.000000     0.381697     0.375001    -0.375001
   34     1.000000    90.000000     0.000000    -1.000000     0.000000     0.375001     0.375001    -0.368305
   35    -1.000000    90.000000     0.000000    -1.000000     0.000000     0.256697     0.256697    -0.500001
   36     1.000000   180.000000     0.707107     0.707107     0.000000     0.375001     0.375001    -0.368305
   37    -1.000000   180.000000     0.707107     0.707107     0.000000     0.256697     0.256697    -0.500001
   38     1.000000    90.000000     1.000000     0.000000     0.000000     0.375001     0.375001    -0.368305
   39    -1.000000    90.000000     1.000000     0.000000     0.000000     0.256697     0.256697    -0.500001
   40     1.000000   120.000000     0.577350    -0.577350    -0.577350     0.256697     0.250001    -0.493305
   41    -1.000000   120.000000     0.577350    -0.577350    -0.577350     0.375001     0.381697    -0.375001
   42     1.000000   180.000000     0.000000     1.000000     0.000000     0.256697     0.250001    -0.493305
   43    -1.000000   180.000000     0.000000     1.000000     0.000000     0.375001     0.381697    -0.375001
   44     1.000000   120.000000     0.577350     0.577350    -0.577350     0.256697     0.250001    -0.493305
   45    -1.000000   120.000000     0.577350     0.577350    -0.577350     0.375001     0.381697    -0.375001
[...]
      3.535399  5.291346  0.023512     0.124257   -0.046678    0.072365
      0.023512  5.291346  0.023512     0.124257   -0.079078   -0.042278
      1.779459  1.779459  1.779459    -0.026287    0.014348    0.004843
      5.291346  1.779459  1.779459    -0.026287    0.041947   -0.034931
      1.779459  5.291346  1.779459    -0.004336    0.014348    0.034931
      5.291346  5.291346  1.779459    -0.004336    0.041947   -0.004843
      1.779459  1.779459  5.291346     0.004336   -0.041947    0.004843
      5.291346  1.779459  5.291346     0.004336   -0.014348   -0.034931
      1.779459  5.291346  5.291346     0.026287   -0.041947    0.034931
      5.291346  5.291346  5.291346     0.026287   -0.014348   -0.004843
      3.535399  3.535399  1.779459     0.043660    0.044348    0.131338
      0.023512  3.535399  1.779459     0.043660    0.011947    0.016696
      3.535399  0.023512  1.779459    -0.074283    0.044348   -0.016696
      0.023512  0.023512  1.779459    -0.074283    0.011947   -0.131338
      3.535399  3.535399  5.291346     0.074283   -0.011947    0.131338
      0.023512  3.535399  5.291346     0.074283   -0.044348    0.016696
      3.535399  0.023512  5.291346    -0.043660   -0.011947   -0.016696
      0.023512  0.023512  5.291346    -0.043660   -0.044348   -0.131338
      1.779459  3.535399  3.535399    -0.054310    0.049078    0.093904
      5.291346  3.535399  3.535399    -0.054310    0.076677    0.054130
      1.779459  0.023512  3.535399    -0.172252    0.049078   -0.054130
      5.291346  0.023512  3.535399    -0.172252    0.076677   -0.093904
      1.779459  3.535399  0.023512     0.172252   -0.076677    0.093904
      5.291346  3.535399  0.023512     0.172252   -0.049078    0.054130
      1.779459  0.023512  0.023512     0.054310   -0.076677   -0.054130
      5.291346  0.023512  0.023512     0.054310   -0.049078   -0.093904
      2.657431  0.901487  0.901487    -0.011278   -0.003515   -0.023772
      6.169318  0.901487  0.901487    -0.011278    0.008340   -0.116312
      2.657431  4.413374  0.901487     0.107329   -0.003515    0.116312
      6.169318  4.413374  0.901487     0.107329    0.008340    0.023772
      2.657431  0.901487  4.413374    -0.107329   -0.008340   -0.023772
      6.169318  0.901487  4.413374    -0.107329    0.003515   -0.116312
      2.657431  4.413374  4.413374     0.011278   -0.008340    0.116312
      6.169318  4.413374  4.413374     0.011278    0.003515    0.023772
      0.901487  0.901487  2.657431    -0.153459    0.045547   -0.095896
      4.413374  0.901487  2.657431    -0.153459    0.117369   -0.044188
      0.901487  4.413374  2.657431    -0.034852    0.045547    0.044188
      4.413374  4.413374  2.657431    -0.034852    0.117369    0.095896
      0.901487  0.901487  6.169318     0.034852   -0.117369   -0.095896
      4.413374  0.901487  6.169318     0.034852   -0.045547   -0.044188
      0.901487  4.413374  6.169318     0.153459   -0.117369    0.044188
      4.413374  4.413374  6.169318     0.153459   -0.045547    0.095896
      0.901487  2.657431  0.901487     0.062580   -0.033498   -0.000002
      4.413374  2.657431  0.901487     0.062580    0.038324    0.051705
      0.901487  6.169318  0.901487     0.033471   -0.033498   -0.051705
      4.413374  6.169318  0.901487     0.033471    0.038324    0.000002
      0.901487  2.657431  4.413374    -0.033471   -0.038324   -0.000002
      4.413374  2.657431  4.413374    -0.033471    0.033498    0.051705
      0.901487  6.169318  4.413374    -0.062580   -0.038324   -0.051705
      4.413374  6.169318  4.413374    -0.062580    0.033498    0.000002

 190 f/i=    0.000005 THz     0.000028 2PiTHz    0.000150 cm-1     0.000019 meV
             X         Y         Z           dx          dy          dz
      2.657431  2.657431  2.657431     0.070179    0.103324   -0.004901
      6.169318  2.657431  2.657431     0.070179    0.103324   -0.004901
      2.657431  6.169318  2.657431     0.070179    0.103324   -0.004901
      6.169318  6.169318  2.657431     0.070179    0.103324   -0.004901
      2.657431  2.657431  6.169318     0.070179    0.103324   -0.004901
      6.169318  2.657431  6.169318     0.070179    0.103324   -0.004901
      2.657431  6.169318  6.169318     0.070179    0.103324   -0.004901
      6.169318  6.169318  6.169318     0.070179    0.103324   -0.004901
      3.535399  1.779459  3.535399     0.070179    0.103324   -0.004901
      0.023512  1.779459  3.535399     0.070179    0.103324   -0.004901
      3.535399  5.291346  3.535399     0.070179    0.103324   -0.004901
      0.023512  5.291346  3.535399     0.070179    0.103324   -0.004901
      3.535399  1.779459  0.023512     0.070179    0.103324   -0.004901
      0.023512  1.779459  0.023512     0.070179    0.103324   -0.004901
      3.535399  5.291346  0.023512     0.070179    0.103324   -0.004901
      0.023512  5.291346  0.023512     0.070179    0.103324   -0.004901
      1.779459  1.779459  1.779459     0.070179    0.103324   -0.004901
      5.291346  1.779459  1.779459     0.070179    0.103324   -0.004901
      1.779459  5.291346  1.779459     0.070179    0.103324   -0.004901
      5.291346  5.291346  1.779459     0.070179    0.103324   -0.004901
      1.779459  1.779459  5.291346     0.070179    0.103324   -0.004901
      5.291346  1.779459  5.291346     0.070179    0.103324   -0.004901
      1.779459  5.291346  5.291346     0.070179    0.103324   -0.004901
      5.291346  5.291346  5.291346     0.070179    0.103324   -0.004901
      3.535399  3.535399  1.779459     0.070179    0.103324   -0.004901
      0.023512  3.535399  1.779459     0.070179    0.103324   -0.004901
      3.535399  0.023512  1.779459     0.070179    0.103324   -0.004901
      0.023512  0.023512  1.779459     0.070179    0.103324   -0.004901
      3.535399  3.535399  5.291346     0.070179    0.103324   -0.004901
      0.023512  3.535399  5.291346     0.070179    0.103324   -0.004901
      3.535399  0.023512  5.291346     0.070179    0.103324   -0.004901
      0.023512  0.023512  5.291346     0.070179    0.103324   -0.004901
      1.779459  3.535399  3.535399     0.070179    0.103324   -0.004901
      5.291346  3.535399  3.535399     0.070179    0.103324   -0.004901
      1.779459  0.023512  3.535399     0.070179    0.103324   -0.004901
      5.291346  0.023512  3.535399     0.070179    0.103324   -0.004901
      1.779459  3.535399  0.023512     0.070179    0.103324   -0.004901
      5.291346  3.535399  0.023512     0.070179    0.103324   -0.004901
      1.779459  0.023512  0.023512     0.070179    0.103324   -0.004901
      5.291346  0.023512  0.023512     0.070179    0.103324   -0.004901
      2.657431  0.901487  0.901487     0.070179    0.103324   -0.004901
      6.169318  0.901487  0.901487     0.070179    0.103324   -0.004901
      2.657431  4.413374  0.901487     0.070179    0.103324   -0.004901
      6.169318  4.413374  0.901487     0.070179    0.103324   -0.004901
      2.657431  0.901487  4.413374     0.070179    0.103324   -0.004901
      6.169318  0.901487  4.413374     0.070179    0.103324   -0.004901
      2.657431  4.413374  4.413374     0.070179    0.103324   -0.004901
      6.169318  4.413374  4.413374     0.070179    0.103324   -0.004901
      0.901487  0.901487  2.657431     0.070179    0.103324   -0.004901
      4.413374  0.901487  2.657431     0.070179    0.103324   -0.004901
      0.901487  4.413374  2.657431     0.070179    0.103324   -0.004901
      4.413374  4.413374  2.657431     0.070179    0.103324   -0.004901
      0.901487  0.901487  6.169318     0.070179    0.103324   -0.004901
      4.413374  0.901487  6.169318     0.070179    0.103324   -0.004901
      0.901487  4.413374  6.169318     0.070179    0.103324   -0.004901
      4.413374  4.413374  6.169318     0.070179    0.103324   -0.004901
      0.901487  2.657431  0.901487     0.070179    0.103324   -0.004901
      4.413374  2.657431  0.901487     0.070179    0.103324   -0.004901
      0.901487  6.169318  0.901487     0.070179    0.103324   -0.004901
      4.413374  6.169318  0.901487     0.070179    0.103324   -0.004901
      0.901487  2.657431  4.413374     0.070179    0.103324   -0.004901
      4.413374  2.657431  4.413374     0.070179    0.103324   -0.004901
      0.901487  6.169318  4.413374     0.070179    0.103324   -0.004901
      4.413374  6.169318  4.413374     0.070179    0.103324   -0.004901

[...]

 192 f/i=    0.000005 THz     0.000029 2PiTHz    0.000154 cm-1     0.000019 meV
             X         Y         Z           dx          dy          dz
      2.657431  2.657431  2.657431     0.103424   -0.070194    0.001127
      6.169318  2.657431  2.657431     0.103424   -0.070194    0.001127
      2.657431  6.169318  2.657431     0.103424   -0.070194    0.001127
      6.169318  6.169318  2.657431     0.103424   -0.070194    0.001127
      2.657431  2.657431  6.169318     0.103424   -0.070194    0.001127
      6.169318  2.657431  6.169318     0.103424   -0.070194    0.001127
      2.657431  6.169318  6.169318     0.103424   -0.070194    0.001127
      6.169318  6.169318  6.169318     0.103424   -0.070194    0.001127
      3.535399  1.779459  3.535399     0.103424   -0.070194    0.001127
      0.023512  1.779459  3.535399     0.103424   -0.070194    0.001127
      3.535399  5.291346  3.535399     0.103424   -0.070194    0.001127
      0.023512  5.291346  3.535399     0.103424   -0.070194    0.001127
      3.535399  1.779459  0.023512     0.103424   -0.070194    0.001127
      0.023512  1.779459  0.023512     0.103424   -0.070194    0.001127
      3.535399  5.291346  0.023512     0.103424   -0.070194    0.001127
      0.023512  5.291346  0.023512     0.103424   -0.070194    0.001127
      1.779459  1.779459  1.779459     0.103424   -0.070194    0.001127
      5.291346  1.779459  1.779459     0.103424   -0.070194    0.001127
      1.779459  5.291346  1.779459     0.103424   -0.070194    0.001127
      5.291346  5.291346  1.779459     0.103424   -0.070194    0.001127
      1.779459  1.779459  5.291346     0.103424   -0.070194    0.001127
      5.291346  1.779459  5.291346     0.103424   -0.070194    0.001127
      1.779459  5.291346  5.291346     0.103424   -0.070194    0.001127
      5.291346  5.291346  5.291346     0.103424   -0.070194    0.001127
      3.535399  3.535399  1.779459     0.103424   -0.070194    0.001127
      0.023512  3.535399  1.779459     0.103424   -0.070194    0.001127
      3.535399  0.023512  1.779459     0.103424   -0.070194    0.001127
      0.023512  0.023512  1.779459     0.103424   -0.070194    0.001127
      3.535399  3.535399  5.291346     0.103424   -0.070194    0.001127
      0.023512  3.535399  5.291346     0.103424   -0.070194    0.001127
      3.535399  0.023512  5.291346     0.103424   -0.070194    0.001127
      0.023512  0.023512  5.291346     0.103424   -0.070194    0.001127
      1.779459  3.535399  3.535399     0.103424   -0.070194    0.001127
      5.291346  3.535399  3.535399     0.103424   -0.070194    0.001127
      1.779459  0.023512  3.535399     0.103424   -0.070194    0.001127
      5.291346  0.023512  3.535399     0.103424   -0.070194    0.001127
      1.779459  3.535399  0.023512     0.103424   -0.070194    0.001127
      5.291346  3.535399  0.023512     0.103424   -0.070194    0.001127
      1.779459  0.023512  0.023512     0.103424   -0.070194    0.001127
      5.291346  0.023512  0.023512     0.103424   -0.070194    0.001127
      2.657431  0.901487  0.901487     0.103424   -0.070194    0.001127
      6.169318  0.901487  0.901487     0.103424   -0.070194    0.001127
      2.657431  4.413374  0.901487     0.103424   -0.070194    0.001127
      6.169318  4.413374  0.901487     0.103424   -0.070194    0.001127
      2.657431  0.901487  4.413374     0.103424   -0.070194    0.001127
      6.169318  0.901487  4.413374     0.103424   -0.070194    0.001127
      2.657431  4.413374  4.413374     0.103424   -0.070194    0.001127
      6.169318  4.413374  4.413374     0.103424   -0.070194    0.001127
      0.901487  0.901487  2.657431     0.103424   -0.070194    0.001127
      4.413374  0.901487  2.657431     0.103424   -0.070194    0.001127
      0.901487  4.413374  2.657431     0.103424   -0.070194    0.001127
      4.413374  4.413374  2.657431     0.103424   -0.070194    0.001127
      0.901487  0.901487  6.169318     0.103424   -0.070194    0.001127
      4.413374  0.901487  6.169318     0.103424   -0.070194    0.001127
      0.901487  4.413374  6.169318     0.103424   -0.070194    0.001127
      4.413374  4.413374  6.169318     0.103424   -0.070194    0.001127
      0.901487  2.657431  0.901487     0.103424   -0.070194    0.001127
      4.413374  2.657431  0.901487     0.103424   -0.070194    0.001127
      0.901487  6.169318  0.901487     0.103424   -0.070194    0.001127
      4.413374  6.169318  0.901487     0.103424   -0.070194    0.001127
      0.901487  2.657431  4.413374     0.103424   -0.070194    0.001127
      4.413374  2.657431  4.413374     0.103424   -0.070194    0.001127
      0.901487  6.169318  4.413374     0.103424   -0.070194    0.001127
      4.413374  6.169318  4.413374     0.103424   -0.070194    0.001127

 ELASTIC MODULI CONTR FROM IONIC RELAXATION (kBar)
 Direction    XX          YY          ZZ          XY          YZ          ZX
 XX          -0.0000      0.0000     -0.0000      0.0000     -0.0000      0.0000
 YY           0.0000     -0.0000      0.0000      0.0000      0.0000     -0.0000
 ZZ          -0.0000      0.0000     -0.0000     -0.0000      0.0000      0.0000
 XY           0.0000      0.0000     -0.0000   -143.1244      0.0000      0.0000
 YZ          -0.0000      0.0000      0.0000      0.0000   -143.1244      0.0000
 ZX           0.0000     -0.0000      0.0000      0.0000      0.0000   -143.1244

 total charge

[...]

 magnetization (x)

# of ion       s       p       d       tot
    1       -0.000   0.000   0.000  -0.000
    2       -0.000   0.000   0.000  -0.000
    3       -0.000   0.000   0.000  -0.000
    4       -0.000   0.000   0.000  -0.000
    5       -0.000   0.000   0.000  -0.000
    6       -0.000   0.000   0.000  -0.000
    7       -0.000   0.000   0.000  -0.000
    8       -0.000   0.000   0.000  -0.000
    9       -0.000   0.000   0.000  -0.000
   10       -0.000   0.000   0.000  -0.000
   11       -0.000   0.000   0.000  -0.000
   12       -0.000   0.000   0.000  -0.000
   13       -0.000   0.000   0.000  -0.000
   14       -0.000   0.000   0.000  -0.000
   15       -0.000   0.000   0.000  -0.000
   16       -0.000   0.000   0.000  -0.000
   17       -0.000   0.000   0.000  -0.000
   18       -0.000   0.000   0.000  -0.000
   19       -0.000   0.000   0.000  -0.000
   20       -0.000   0.000   0.000  -0.000
   21       -0.000   0.000   0.000  -0.000
   22       -0.000   0.000   0.000  -0.000
   23       -0.000   0.000   0.000  -0.000
   24       -0.000   0.000   0.000  -0.000
   25       -0.000   0.000   0.000  -0.000
   26       -0.000   0.000   0.000  -0.000
   27       -0.000   0.000   0.000  -0.000
   28       -0.000   0.000   0.000  -0.000
   29       -0.000   0.000   0.000  -0.000
   30       -0.000   0.000   0.000  -0.000
   31       -0.000   0.000   0.000  -0.000
   32       -0.000   0.000   0.000  -0.000
   33       -0.000   0.000   0.000  -0.000
   34       -0.000   0.000   0.000  -0.000
   35       -0.000   0.000   0.000  -0.000
   36       -0.000   0.000   0.000  -0.000
   37       -0.000   0.000   0.000  -0.000
   38       -0.000   0.000   0.000  -0.000
   39       -0.000   0.000   0.000  -0.000
   40       -0.000   0.000   0.000  -0.000
   41       -0.000   0.000   0.000  -0.000
   42       -0.000   0.000   0.000  -0.000
   43       -0.000   0.000   0.000  -0.000
   44       -0.000   0.000   0.000  -0.000
   45       -0.000   0.000   0.000  -0.000
   46       -0.000   0.000   0.000  -0.000
   47       -0.000   0.000   0.000  -0.000
   48       -0.000   0.000   0.000  -0.000
   49       -0.000   0.000   0.000  -0.000
   50       -0.000   0.000   0.000  -0.000
   51       -0.000   0.000   0.000  -0.000
   52       -0.000   0.000   0.000  -0.000
   53       -0.000   0.000   0.000  -0.000
   54       -0.000   0.000   0.000  -0.000
   55       -0.000   0.000   0.000  -0.000
   56       -0.000   0.000   0.000  -0.000
   57       -0.000   0.000   0.000  -0.000
   58       -0.000   0.000   0.000  -0.000
   59       -0.000   0.000   0.000  -0.000
   60       -0.000   0.000   0.000  -0.000
   61       -0.000   0.000   0.000  -0.000
   62       -0.000   0.000   0.000  -0.000
   63       -0.000   0.000   0.000  -0.000
   64       -0.000   0.000   0.000  -0.000
tot         -0.000   0.000   0.000  -0.000

 BZINTS: Fermi energy: 10.537548;256.000000 electrons
         Band energy: 301.882245;  BLOECHL correction:  0.000000