 vasp.5.4.4.18Apr17-6-g9f103f2a35 (build Jul  5 2023 12:24:19) complex
 executed on NVIDIA22.7_CrayMPICH date 2023.10.16  23:30:57

 INCAR:
 POTCAR:   PAW_PBE C 08Apr2002
 POTCAR:   PAW_PBE C 08Apr2002

 PAW_PBE C 08Apr2002                    :

 POSCAR: C8
  positions in direct lattice
 exchange correlation table for  LEXCH =        8
   RHO(1)=    0.500       N(1)  =     2000
   RHO(2)=  100.500       N(2)  =     4000

 ion  position               nearest neighbor table
   1  0.757  0.757  0.757-   2 1.52   4 1.52   5 1.52   3 1.52
   2  0.007  0.507  0.007-   1 1.52   6 1.52   7 1.52   8 1.52
   3  0.507  0.507  0.507-   1 1.52   6 1.52   7 1.52   8 1.52
   4  0.007  0.007  0.507-   1 1.52   6 1.52   8 1.52   7 1.52
   5  0.507  0.007  0.007-   1 1.52   7 1.52   8 1.52   6 1.52
   6  0.757  0.257  0.257-   3 1.52   2 1.52   4 1.52   5 1.52
   7  0.257  0.257  0.757-   3 1.52   2 1.52   5 1.52   4 1.52
   8  0.257  0.757  0.257-   3 1.52   4 1.52   5 1.52   2 1.52

  LATTYP: Found a simple cubic cell.
 ALAT       =     3.5118870000

  Lattice vectors:

 A1 = (   3.5118870000,  -0.0000000000,  -0.0000000000)
 A2 = (   0.0000000000,   3.5118870000,  -0.0000000000)
 A3 = (   0.0000000000,   0.0000000000,   3.5118870000)

Analysis of symmetry for initial positions (statically):
 Subroutine PRICEL returns following result:

  LATTYP: Found a face centered cubic cell.
 ALAT       =     3.5118799762

[...]

   4 primitive cells build up your supercell.

 Routine SETGRP: Setting up the symmetry group for a
 simple cubic supercell.

 Subroutine GETGRP returns: Found 48 space group operations
 (whereof  6 operations were pure point group operations)
 out of a pool of 48 trial point group operations.

The static configuration has the point symmetry C_3v.
 The point group associated with its full space group is O_h .

Analysis of symmetry for dynamics (positions and initial velocities):
 Subroutine PRICEL returns following result:

[...]

The dynamic configuration has the point symmetry C_3v.
 The point group associated with its full space group is O_h .

Analysis of structural, dynamic, and magnetic symmetry:
 Subroutine PRICEL returns following result:

  LATTYP: Found a face centered cubic cell.
 ALAT       =     3.5118799762

  Lattice vectors:

 A1 = (   1.7559399881,   1.7559399881,  -0.0000070238)
 A2 = (   1.7559399881,  -0.0000000000,  -1.7559470119)
 A3 = (   0.0000000000,   1.7559399881,  -1.7559470119)

   4 primitive cells build up your supercell.

 Routine SETGRP: Setting up the symmetry group for a
 simple cubic supercell.

 Subroutine GETGRP returns: Found 48 space group operations
 (whereof  6 operations were pure point group operations)
 out of a pool of 48 trial point group operations.

The magnetic configuration has the point symmetry C_3v.
 The point group associated with its full space group is O_h .

 Subroutine INISYM returns: Found 48 space group operations
 (whereof  6 operations are pure point group operations),
 and found     4 'primitive' translations

 KPOINTS: kpt_density=6000

Automatic generation of k-mesh.
Space group operators:
 irot       det(A)        alpha          n_x          n_y          n_z        tau_x        tau_y        tau_z
    1     1.000000     0.000000     1.000000     0.000000     0.000000     0.000000     0.000000    -0.000000
    2     1.000000   120.000000    -0.577350    -0.577350    -0.577350     0.000000     0.000000    -0.000000
    3     1.000000   120.000000     0.577350     0.577350     0.577350     0.000000     0.000000    -0.000000
    4    -1.000000   180.000000     0.000000    -0.707107     0.707107     0.000000     0.000000    -0.000000
    5    -1.000000   180.000000     0.707107    -0.707107     0.000000     0.000000     0.000000    -0.000000
    6    -1.000000   180.000000     0.707107     0.000000    -0.707107     0.000000     0.000000    -0.000000
    7    -1.000000     0.000000     1.000000     0.000000     0.000000     0.763390     0.763390    -0.736610
    8    -1.000000   120.000000    -0.577350    -0.577350    -0.577350     0.763390     0.763390    -0.736610
    9    -1.000000   120.000000     0.577350     0.577350     0.577350     0.763390     0.763390    -0.736610
   10     1.000000    90.000000     0.000000     0.000000    -1.000000     0.763390     0.749998    -0.750002
   11    -1.000000    90.000000     0.000000     0.000000    -1.000000     0.499999     0.013390    -0.486611
   12     1.000000   180.000000     0.000000     0.707107     0.707107     0.763390     0.749998    -0.750002
   13    -1.000000   180.000000     0.000000     0.707107     0.707107     0.499999     0.013390    -0.486611
   14     1.000000    90.000000     0.000000     1.000000     0.000000     0.763390     0.749998    -0.750002
   15    -1.000000    90.000000     0.000000     1.000000     0.000000     0.499999     0.013390    -0.486611
   16     1.000000   180.000000     0.000000     0.000000     1.000000     0.513391     0.513391    -1.000002
   17    -1.000000   180.000000     0.000000     0.000000     1.000000     0.749999     0.749999    -0.736610
   18     1.000000   120.000000    -0.577350     0.577350     0.577350     0.513391     0.513391    -1.000002
   19    -1.000000   120.000000    -0.577350     0.577350     0.577350     0.749999     0.749999    -0.736610
   20     1.000000   120.000000    -0.577350     0.577350    -0.577350     0.513391     0.513391    -1.000002
   21    -1.000000   120.000000    -0.577350     0.577350    -0.577350     0.749999     0.749999    -0.736610
   22     1.000000    90.000000     0.000000     0.000000     1.000000     0.749999     0.763390    -0.750001
   23    -1.000000    90.000000     0.000000     0.000000     1.000000     0.013392     0.499999    -0.486609
   24     1.000000    90.000000    -1.000000     0.000000     0.000000     0.749999     0.763390    -0.750001
   25    -1.000000    90.000000    -1.000000     0.000000     0.000000     0.013392     0.499999    -0.486609
   26     1.000000   180.000000     0.707107     0.000000     0.707107     0.749999     0.763390    -0.750001
   27    -1.000000   180.000000     0.707107     0.000000     0.707107     0.013392     0.499999    -0.486609
   28     1.000000   120.000000     0.577350    -0.577350     0.577350     0.499999     0.013390    -0.486611
   29    -1.000000   120.000000     0.577350    -0.577350     0.577350     0.763390     0.749998    -0.750002
   30     1.000000   120.000000    -0.577350    -0.577350     0.577350     0.499999     0.013390    -0.486611
   31    -1.000000   120.000000    -0.577350    -0.577350     0.577350     0.763390     0.749998    -0.750002
   32     1.000000   180.000000     1.000000     0.000000     0.000000     0.499999     0.013390    -0.486611
   33    -1.000000   180.000000     1.000000     0.000000     0.000000     0.763390     0.749998    -0.750002
   34     1.000000    90.000000     0.000000    -1.000000     0.000000     0.749999     0.749999    -0.736610
   35    -1.000000    90.000000     0.000000    -1.000000     0.000000     0.513391     0.513391    -1.000002
   36     1.000000   180.000000     0.707107     0.707107     0.000000     0.749999     0.749999    -0.736610
   37    -1.000000   180.000000     0.707107     0.707107     0.000000     0.513391     0.513391    -1.000002
   38     1.000000    90.000000     1.000000     0.000000     0.000000     0.749999     0.749999    -0.736610
   39    -1.000000    90.000000     1.000000     0.000000     0.000000     0.513391     0.513391    -1.000002
   40     1.000000   120.000000     0.577350    -0.577350    -0.577350     0.013392     0.499999    -0.486609
   41    -1.000000   120.000000     0.577350    -0.577350    -0.577350     0.749999     0.763390    -0.750001
   42     1.000000   180.000000     0.000000     1.000000     0.000000     0.013392     0.499999    -0.486609
   43    -1.000000   180.000000     0.000000     1.000000     0.000000     0.749999     0.763390    -0.750001
   44     1.000000   120.000000     0.577350     0.577350    -0.577350     0.013392     0.499999    -0.486609
   45    -1.000000   120.000000     0.577350     0.577350    -0.577350     0.749999     0.763390    -0.750001
   46     1.000000   180.000000     0.000000    -0.707107     0.707107     0.763390     0.763390    -0.736610
   47     1.000000   180.000000     0.707107    -0.707107     0.000000     0.763390     0.763390    -0.736610
   48     1.000000   180.000000     0.707107     0.000000    -0.707107     0.763390     0.763390    -0.736610

 Subroutine IBZKPT returns following result:

 Found     35 irreducible k-points:

 Following reciprocal coordinates:
            Coordinates               Weight
  0.000000  0.000000  0.000000      1.000000
  0.125000  0.000000  0.000000      6.000000
  0.250000  0.000000  0.000000      6.000000
  0.375000  0.000000  0.000000      6.000000
  0.500000  0.000000  0.000000      3.000000
  0.125000  0.125000  0.000000     12.000000
  0.250000  0.125000  0.000000     24.000000
  0.375000  0.125000  0.000000     24.000000
  0.500000  0.125000  0.000000     12.000000
  0.250000  0.250000  0.000000     12.000000
  0.375000  0.250000  0.000000     24.000000
  0.500000  0.250000  0.000000     12.000000
  0.375000  0.375000  0.000000     12.000000
  0.500000  0.375000  0.000000     12.000000
  0.500000  0.500000  0.000000      3.000000
  0.125000  0.125000  0.125000      8.000000
  0.250000  0.125000  0.125000     24.000000
  0.375000  0.125000  0.125000     24.000000
  0.500000  0.125000  0.125000     12.000000
  0.250000  0.250000  0.125000     24.000000
  0.375000  0.250000  0.125000     48.000000
  0.500000  0.250000  0.125000     24.000000
  0.375000  0.375000  0.125000     24.000000
  0.500000  0.375000  0.125000     24.000000
  0.500000  0.500000  0.125000      6.000000
  0.250000  0.250000  0.250000      8.000000
  0.375000  0.250000  0.250000     24.000000
  0.500000  0.250000  0.250000     12.000000
  0.375000  0.375000  0.250000     24.000000
  0.500000  0.375000  0.250000     24.000000
  0.500000  0.500000  0.250000      6.000000
  0.375000  0.375000  0.375000      8.000000
  0.500000  0.375000  0.375000     12.000000
  0.500000  0.500000  0.375000      6.000000
  0.500000  0.500000  0.500000      1.000000

 Following cartesian coordinates:
            Coordinates               Weight
  0.000000  0.000000  0.000000      1.000000
  0.035593  0.000000  0.000000      6.000000
  0.071187  0.000000  0.000000      6.000000
  0.106780  0.000000  0.000000      6.000000
  0.142374  0.000000  0.000000      3.000000
  0.035593  0.035593  0.000000     12.000000
  0.071187  0.035593  0.000000     24.000000
  0.106780  0.035593  0.000000     24.000000
  0.142374  0.035593  0.000000     12.000000
  0.071187  0.071187  0.000000     12.000000
  0.106780  0.071187  0.000000     24.000000
  0.142374  0.071187  0.000000     12.000000
  0.106780  0.106780  0.000000     12.000000
  0.142374  0.106780  0.000000     12.000000
  0.142374  0.142374  0.000000      3.000000
  0.035593  0.035593  0.035593      8.000000
  0.071187  0.035593  0.035593     24.000000
  0.106780  0.035593  0.035593     24.000000
  0.142374  0.035593  0.035593     12.000000
[...]
   2.65743085  0.90148735  0.90148735
   0.90148735  0.90148735  2.65743085
   0.90148735  2.65743085  0.90148735

 k-point  1 :   0.0000 0.0000 0.0000  plane waves:     751
 k-point  2 :   0.1250 0.0000 0.0000  plane waves:     775
 k-point  3 :   0.2500 0.0000 0.0000  plane waves:     799
 k-point  4 :   0.3750 0.0000 0.0000  plane waves:     792
 k-point  5 :   0.5000 0.0000 0.0000  plane waves:     804
 k-point  6 :   0.1250 0.1250 0.0000  plane waves:     778
 k-point  7 :   0.2500 0.1250 0.0000  plane waves:     782
 k-point  8 :   0.3750 0.1250 0.0000  plane waves:     787
 k-point  9 :   0.5000 0.1250 0.0000  plane waves:     800
 k-point 10 :   0.2500 0.2500 0.0000  plane waves:     784
 k-point 11 :   0.3750 0.2500 0.0000  plane waves:     788
 k-point 12 :   0.5000 0.2500 0.0000  plane waves:     782
 k-point 13 :   0.3750 0.3750 0.0000  plane waves:     788
 k-point 14 :   0.5000 0.3750 0.0000  plane waves:     788
 k-point 15 :   0.5000 0.5000 0.0000  plane waves:     784
 k-point 16 :   0.1250 0.1250 0.1250  plane waves:     787
 k-point 17 :   0.2500 0.1250 0.1250  plane waves:     791
 k-point 18 :   0.3750 0.1250 0.1250  plane waves:     792
 k-point 19 :   0.5000 0.1250 0.1250  plane waves:     792
 k-point 20 :   0.2500 0.2500 0.1250  plane waves:     784
 k-point 21 :   0.3750 0.2500 0.1250  plane waves:     785
 k-point 22 :   0.5000 0.2500 0.1250  plane waves:     788
 k-point 23 :   0.3750 0.3750 0.1250  plane waves:     794
 k-point 24 :   0.5000 0.3750 0.1250  plane waves:     790
 k-point 25 :   0.5000 0.5000 0.1250  plane waves:     796
 k-point 26 :   0.2500 0.2500 0.2500  plane waves:     784
 k-point 27 :   0.3750 0.2500 0.2500  plane waves:     790
 k-point 28 :   0.5000 0.2500 0.2500  plane waves:     780
 k-point 29 :   0.3750 0.3750 0.2500  plane waves:     784
 k-point 30 :   0.5000 0.3750 0.2500  plane waves:     784
 k-point 31 :   0.5000 0.5000 0.2500  plane waves:     788
 k-point 32 :   0.3750 0.3750 0.3750  plane waves:     786
 k-point 33 :   0.5000 0.3750 0.3750  plane waves:     786
 k-point 34 :   0.5000 0.5000 0.3750  plane waves:     780
 k-point 35 :   0.5000 0.5000 0.5000  plane waves:     840

 maximum and minimum number of plane-waves per node :       218      172

 maximum number of plane-waves:       840
 maximum index in each direction:
   IXMAX=    5   IYMAX=    5   IZMAX=    5
   IXMIN=   -6   IYMIN=   -6   IZMIN=   -6

 parallel 3D FFT for wavefunctions:
    minimum data exchange during FFTs selected (reduces bandwidth)
 parallel 3D FFT for charge:
    minimum data exchange during FFTs selected (reduces bandwidth)

 Broyden mixing: mesh for mixing (old mesh)
   NGX = 11   NGY = 11   NGZ = 11
  (NGX  = 48   NGY  = 48   NGZ  = 48)
  gives a total of   1331 points

 charge density for first step will be calculated from the start-wavefunctions

 Maximum index for augmentation-charges           286 (set IRDMAX)

 initial charge from wavefunction
 First call to EWALD:  gamma=   0.505
 Maximum number of real-space cells 3x 3x 3
 Maximum number of reciprocal cells 3x 3x 3

--------------------------------------- Iteration      1(   1)  ---------------------------------------

 BZINTS: Fermi energy: 14.514573; 32.000000 electrons
         Band energy: -33.512957;  BLOECHL correction: -0.034638

 eigenvalue-minimisations  :  3984
 total energy-change (2. order) :-0.4787081E+02  (-0.1534961E+04)
 number of electron      31.9999999 magnetization      -0.0000000
 augmentation part       -0.1826374 magnetization      -0.0111144

 Free energy of the ion-electron system (eV)
  alpha Z        PSCENC =       120.39550375
  Ewald energy   TEWEN  =     -1413.59899669
  -Hartree energ DENC   =        -2.58221799
  -exchange      EXHF   =         0.00000000
  -V(xc)+E(xc)   XCENC  =       109.41487070
  PAW double counting   =       103.69076704     -108.69556966
  entropy T*S    EENTRO =         0.00000000
  eigenvalues    EBANDS =       -33.51295717
  atomic energy  EATOM  =      1177.01779097
  Solvation  Ediel_sol  =         0.00000000
  free energy    TOTEN  =       -47.87080904 eV

  energy without entropy =      -47.87080904  energy(sigma->0) =      -47.87080904

[...]

 BZINTS: Fermi energy:  2.760508; 32.000000 electrons
         Band energy:-165.021668;  BLOECHL correction:  0.000000

[...]

 BZINTS: Fermi energy:  1.953917; 32.000000 electrons
         Band energy:-170.390271;  BLOECHL correction:  0.000000

[...]

 Broyden mixing:
  rms(total) = 0.48282E+01    rms(broyden)= 0.48193E+01
  rms(prec ) = 0.12635E+02
  weight for this iteration     100.00

[...]

 eigenvalue-minimisations  :  4292
 total energy-change (2. order) : 0.8228418E+02  (-0.4621826E+01)
 number of electron      32.0000004 magnetization      -0.0000000
 augmentation part        0.9000060 magnetization       0.0000614

[...]

 eigenvalues of (default mixing * dielectric matrix)
  average eigenvalue GAMMA=   2.0909
  2.0909

[...]

 Broyden mixing:
  rms(total) = 0.18976E-03    rms(broyden)= 0.18936E-03
  rms(prec ) = 0.27407E-03
  weight for this iteration     100.00

[...]

 Free energy of the ion-electron system (eV)
  alpha Z        PSCENC =       120.39550375
  Ewald energy   TEWEN  =     -1413.59899669
  -Hartree energ DENC   =      -102.89108229
  -exchange      EXHF   =         0.00000000
  -V(xc)+E(xc)   XCENC  =       119.03953734
  PAW double counting   =       552.06651088     -562.31275548
  entropy T*S    EENTRO =         0.00000000
  eigenvalues    EBANDS =        37.70111815
  atomic energy  EATOM  =      1177.01779097
  Solvation  Ediel_sol  =         0.00000000
  free energy    TOTEN  =       -72.58237338 eV

  energy without entropy =      -72.58237338  energy(sigma->0) =      -72.58237338

 average (electrostatic) potential at core
  the test charge radii are     0.6991
  (the norm of the test charge is              1.0000)
       1 -44.6942       2 -44.6941       3 -44.6941       4 -44.6941       5 -44.6941
       6 -44.6939       7 -44.6939       8 -44.6939

 E-fermi :  10.5329     XC(G=0): -13.4574     alpha+bet :-18.5421

 spin component 1

 k-point     1 :       0.0000    0.0000    0.0000
  band No.  band energies     occupation
      1     -11.6709      1.00000
      2      -2.6587      1.00000
      3      -2.6587      1.00000
      4      -2.6587      1.00000
      5      -2.6586      1.00000
      6      -2.6586      1.00000
      7      -2.6586      1.00000
      8       3.8603      1.00000
      9       3.8603      1.00000
     10       3.8603      1.00000
     11       3.8603      1.00000
     12       3.8604      1.00000
     13       3.8604      1.00000
     14      10.4584      1.00000
     15      10.4584      1.00000
     16      10.4585      1.00000
     17      15.3032      0.00000
     18      15.3032      0.00000
     19      15.3032      0.00000
     20      15.3032      0.00000
     21      15.3032      0.00000
     22      15.3033      0.00000
     23      16.1757      0.00000
     24      16.1757      0.00000
     25      16.1757      0.00000
     26      24.8491      0.00000
     27      28.0570      0.00000
     28      28.0570      0.00000

[...]

 spin component 2

[...]

 k-point    35 :       0.5000    0.5000    0.5000
  band No.  band energies     occupation
      1      -5.6247      1.00000
      2      -5.6246      1.00000
      3      -5.6245      1.00000
      4      -5.6245      1.00000
      5      -3.4570      1.00000
      6      -3.4570      1.00000
      7      -3.4570      1.00000
      8      -3.4569      1.00000
      9       7.5239      1.00000
     10       7.5239      1.00000
     11       7.5240      1.00000
     12       7.5240      1.00000
     13       7.5241      1.00000
     14       7.5241      1.00000
     15       7.5241      1.00000
     16       7.5241      1.00000
     17      19.1025      0.00000
     18      19.1025      0.00000
     19      19.1025      0.00000
     20      19.1026      0.00000
     21      19.1026      0.00000
     22      19.1026      0.00000
     23      19.1026      0.00000
     24      19.1027      0.00000
     25      19.9257      0.00000
     26      19.9257      0.00000
     27      19.9257      0.00000
     28      19.9257      0.00000

 soft charge-density along one line, spin component            1
         0         1         2         3         4         5         6         7         8         9
 total charge-density along one line

 soft charge-density along one line, spin component            2
         0         1         2         3         4         5         6         7         8         9
 total charge-density along one line

------------------------ aborting loop because EDIFF is reached ----------------------------------------

 total charge

# of ion       s       p       d       tot
    1        0.842   1.802   0.000   2.644
    2        0.842   1.802   0.000   2.644
    3        0.842   1.802   0.000   2.644
    4        0.842   1.802   0.000   2.644
    5        0.842   1.802   0.000   2.644
    6        0.842   1.802   0.000   2.644
    7        0.842   1.802   0.000   2.644
    8        0.842   1.802   0.000   2.644
tot          6.739  14.416   0.000  21.155

 magnetization (x)

[...]

  FORCE on cell =-STRESS in cart. coord.  units (eV):
  Direction    XX          YY          ZZ          XY          YZ          ZX
  Alpha Z   120.39550   120.39550   120.39550
  Ewald    -471.20047  -471.20047  -471.20047    -0.00132    -0.00132    -0.00132
  Hartree    34.29879    34.29879    34.29879    -0.00001    -0.00001    -0.00001
  E(xc)    -121.00965  -121.00965  -121.00965    -0.00000    -0.00000    -0.00000
  Local     -43.43092   -43.43092   -43.43092     0.00070     0.00070     0.00070
  n-local   -29.97848   -30.73733   -30.39860     0.60932     0.72460     0.34013
  augment    -3.03766    -3.03766    -3.03766    -0.00010    -0.00010    -0.00010
  Kinetic   508.45978   524.56648   526.86690    -4.47073    -6.14613    -3.00756
  Fock        0.00000     0.00000     0.00000     0.00000     0.00000     0.00000
  Total       5.60852     5.60852     5.60852    -0.00000    -0.00000     0.00000
  in kB     207.46135   207.46135   207.46135    -0.00000    -0.00000     0.00000

 VOLUME and BASIS-vectors are now :
  energy-cutoff  :      400.00
  volume of cell :       43.31
      direct lattice vectors                 reciprocal lattice vectors
     3.511887000 -0.000000000 -0.000000000     0.284747203 -0.000000000  0.000000000
     0.000000000  3.511887000 -0.000000000     0.000000000  0.284747203 -0.000000000
     0.000000000  0.000000000  3.511887000     0.000000000  0.000000000  0.284747203

  length of vectors
     3.511887000  3.511887000  3.511887000     0.284747203  0.284747203  0.284747203

 FORCES acting on ions
    electron-ion (+dipol)            ewald-force                    non-local-force                 convergence-correction
   -.798E-03 -.798E-03 -.543E-03   -.156E-03 -.156E-03 -.156E-03   0.307E-16 0.668E-16 -.833E-16   0.270E-08 0.270E-08 0.213E-08
   0.546E-04 -.794E-03 0.310E-03   0.631E-03 -.318E-03 0.631E-03   -.239E-16 -.390E-17 -.173E-16   0.227E-07 -.183E-07 0.221E-07
   -.794E-03 -.794E-03 -.539E-03   -.318E-03 -.318E-03 -.318E-03   -.640E-18 0.243E-16 0.460E-16   -.183E-07 -.183E-07 -.189E-07
   0.546E-04 0.546E-04 -.539E-03   0.631E-03 0.631E-03 -.318E-03   0.305E-16 -.477E-16 0.390E-16   0.227E-07 0.227E-07 -.189E-07
   -.794E-03 0.546E-04 0.310E-03   -.318E-03 0.631E-03 0.631E-03   -.136E-16 -.403E-16 -.182E-16   -.183E-07 0.227E-07 0.221E-07
   -.798E-03 -.798E-03 -.543E-03   -.156E-03 -.156E-03 -.156E-03   -.206E-16 0.134E-16 0.551E-16   0.270E-08 0.270E-08 0.213E-08
   -.798E-03 -.798E-03 -.543E-03   -.156E-03 -.156E-03 -.156E-03   0.302E-16 0.625E-16 0.390E-16   0.270E-08 0.270E-08 0.213E-08
   -.798E-03 -.798E-03 -.543E-03   -.156E-03 -.156E-03 -.156E-03   -.104E-16 -.143E-16 0.152E-16   0.270E-08 0.270E-08 0.213E-08
   -.467E-02 -.467E-02 -.263E-02   0.370E-14 -.887E-14 -.497E-15   0.222E-16 0.607E-16 0.755E-16   0.196E-07 0.196E-07 0.150E-07

 POSITION                                       TOTAL-FORCE (eV/Angst)
      2.65743      2.65743      2.65743         0.000000      0.000000      0.000000
      0.02351      1.77946      0.02351        -0.000000     -0.000000     -0.000000
      1.77946      1.77946      1.77946         0.000000      0.000000     -0.000000
      0.02351      0.02351      1.77946        -0.000000      0.000000     -0.000000
      1.77946      0.02351      0.02351         0.000000     -0.000000     -0.000000
      2.65743      0.90149      0.90149         0.000000     -0.000000      0.000000
      0.90149      0.90149      2.65743         0.000000      0.000000      0.000000
      0.90149      2.65743      0.90149        -0.000000     -0.000000      0.000000
    total drift:                               -0.004671     -0.004671     -0.002631

  FREE ENERGIE OF THE ION-ELECTRON SYSTEM (eV)
  free  energy   TOTEN  =       -72.58237338 eV

  energy  without entropy=      -72.58237338  energy(sigma->0) =      -72.58237338
  enthalpy is  TOTEN    =       -52.30684031 eV   P V=       20.27553307

[...]

  free energy =  -0.725340894330E+02  energy without entropy=  -0.725340894330E+02

[...]

 d Force = 0.0000000E+00[ 0.000E+00, 0.000E+00]  d Energy = 0.1117111E+00-0.112E+00
 d Force = 0.0000000E+00[ 0.000E+00, 0.000E+00]  d Ewald  = 0.3760835E+01-0.376E+01

 Steepest descent step on ions:
 trial-energy change:   -0.111711  1 .order   -0.111533   -0.116753   -0.106314
  (g-gl).g = 0.117E+00      g.g   = 0.117E+00  gl.gl    = 0.000E+00
 g(Force)  = 0.891E-41   g(Stress)= 0.117E+00 ortho     = 0.000E+00
 gamma     =   0.00000
 trial     =   1.00000
 opt step  =   4.00000  (harmonic =  11.18462) maximal distance =0.00000000
 next E    =   -52.959758   (d E  =  -0.65292)

[...]

 eigenvalue-minimisations  :  4256
 total energy-change (2. order) : 0.1328134E-03  (-0.1996374E-04)
 number of electron      32.0000008 magnetization       0.0000000
 augmentation part        0.8563812 magnetization       0.0000007

 eigenvalues of (default mixing * dielectric matrix)
  average eigenvalue GAMMA=   1.8052
  1.4499  2.1605

[...]

--------------------------------------- Iteration      5(   4)  ---------------------------------------

[...]

 eigenvalue-minimisations  :  4148
 total energy-change (2. order) :-0.3271759E-06  (-0.2574437E-06)
 number of electron      32.0000008 magnetization       0.0000000
 augmentation part        0.8563812 magnetization       0.0000007

  free energy =  -0.715486399427E+02  energy without entropy=  -0.715486399427E+02

------------------------ aborting loop because EDIFF is reached ----------------------------------------

[...]

  FORCE on cell =-STRESS in cart. coord.  units (eV):
  Direction    XX          YY          ZZ          XY          YZ          ZX
  Alpha Z   131.22095   131.22095   131.22095
  Ewald    -484.91991  -484.91991  -484.91991    -0.00136    -0.00136    -0.00136
  Hartree    32.77791    32.77791    32.77791    -0.00001    -0.00001    -0.00001
  E(xc)    -123.49528  -123.49528  -123.49528    -0.00000    -0.00000    -0.00000
  Local     -37.00639   -37.00639   -37.00639     0.00068     0.00068     0.00068
  n-local   -33.54995   -34.29042   -34.36531     0.56406     0.64365     0.29888
  augment    -3.43335    -3.43335    -3.43335     0.00004     0.00004     0.00004
  Kinetic   525.02603   541.95498   545.70966    -4.54893    -6.18021    -3.03911
  Fock        0.00000     0.00000     0.00000     0.00000     0.00000     0.00000
  Total      18.63893    18.63893    18.63893    -0.00000    -0.00000     0.00000
  in kB     751.45478   751.45478   751.45478    -0.00000    -0.00000     0.00000

  FREE ENERGIE OF THE ION-ELECTRON SYSTEM (eV)
  free  energy   TOTEN  =       -71.54863994 eV

  energy  without entropy=      -71.54863994  energy(sigma->0) =      -71.54863994
  enthalpy is  TOTEN    =       -52.94579440 eV   P V=       18.60284554

 d Force = 0.0000000E+00[ 0.000E+00, 0.000E+00]  d Energy = 0.2434881E-02-0.243E-02
 d Force = 0.0000000E+00[ 0.000E+00, 0.000E+00]  d Ewald  = 0.2627305E+01-0.263E+01

 reached required accuracy - stopping structural energy minimisation

 total charge

[...]

 magnetization (x)

# of ion       s       p       d       tot
    1        0.000  -0.000   0.000   0.000
    2        0.000  -0.000   0.000   0.000
    3        0.000  -0.000   0.000   0.000
    4        0.000  -0.000   0.000   0.000
    5        0.000  -0.000   0.000   0.000
    6        0.000  -0.000   0.000   0.000
    7        0.000  -0.000   0.000   0.000
    8        0.000  -0.000   0.000   0.000
tot          0.000  -0.000   0.000   0.000

 BZINTS: Fermi energy: 11.792928; 32.000000 electrons
         Band energy:  62.207191;  BLOECHL correction:  0.000000