 vasp.5.4.4.18Apr17-6-g9f103f2a35 (build Jul  5 2023 12:24:19) complex
 executed on NVIDIA22.7_CrayMPICH date 2023.10.17  09:02:08

 INCAR:
 POTCAR:   PAW_PBE C 08Apr2002

 POTCAR:   PAW_PBE C 08Apr2002

 PAW_PBE C 08Apr2002                    :

 POSCAR: generated by phonopy
  positions in direct lattice
 exchange correlation table for  LEXCH =        8
   RHO(1)=    0.500       N(1)  =     2000
   RHO(2)=  100.500       N(2)  =     4000

 ion  position               nearest neighbor table
   1  0.167  0.333  0.469-  23 1.54  22 1.54  21 1.54  25 1.57
   2  0.667  0.333  0.469-  24 1.54  21 1.54  22 1.54  26 1.57
   3  0.167  0.833  0.469-  21 1.54  24 1.54  23 1.54  27 1.57
   4  0.667  0.833  0.469-  22 1.54  23 1.54  24 1.54  28 1.57
   5  0.167  0.333  0.969-  19 1.54  18 1.54  17 1.54  29 1.57
   6  0.667  0.333  0.969-  20 1.54  17 1.54  18 1.54  30 1.57
   7  0.167  0.833  0.969-  17 1.54  20 1.54  19 1.54  31 1.57
   8  0.667  0.833  0.969-  18 1.54  19 1.54  20 1.54  32 1.57
   9  0.333  0.167  0.219-  27 1.54  26 1.54  25 1.54  17 1.57
  10  0.833  0.167  0.219-  28 1.54  25 1.54  26 1.54  18 1.57
  11  0.333  0.667  0.219-  25 1.54  28 1.54  27 1.54  19 1.57
  12  0.833  0.667  0.219-  26 1.54  27 1.54  28 1.54  20 1.57
  13  0.333  0.167  0.719-  31 1.54  30 1.54  29 1.54  21 1.57
  14  0.833  0.167  0.719-  32 1.54  29 1.54  30 1.54  22 1.57
  15  0.333  0.667  0.719-  29 1.54  32 1.54  31 1.54  23 1.57
  16  0.833  0.667  0.719-  30 1.54  31 1.54  32 1.54  24 1.57
  17  0.333  0.167  0.031-   7 1.54   6 1.54   5 1.54   9 1.57
  18  0.833  0.167  0.031-   8 1.54   5 1.54   6 1.54  10 1.57
  19  0.333  0.667  0.031-   5 1.54   8 1.54   7 1.54  11 1.57
  20  0.833  0.667  0.031-   6 1.54   7 1.54   8 1.54  12 1.57
  21  0.333  0.167  0.531-   3 1.54   2 1.54   1 1.54  13 1.57
  22  0.833  0.167  0.531-   4 1.54   1 1.54   2 1.54  14 1.57
  23  0.333  0.667  0.531-   1 1.54   4 1.54   3 1.54  15 1.57
  24  0.833  0.667  0.531-   2 1.54   3 1.54   4 1.54  16 1.57
  25  0.167  0.333  0.281-  11 1.54  10 1.54   9 1.54   1 1.57
  26  0.667  0.333  0.281-  12 1.54   9 1.54  10 1.54   2 1.57
  27  0.167  0.833  0.281-   9 1.54  12 1.54  11 1.54   3 1.57
  28  0.667  0.833  0.281-  10 1.54  11 1.54  12 1.54   4 1.57
  29  0.167  0.333  0.781-  15 1.54  14 1.54  13 1.54   5 1.57
  30  0.667  0.333  0.781-  16 1.54  13 1.54  14 1.54   6 1.57
  31  0.167  0.833  0.781-  13 1.54  16 1.54  15 1.54   7 1.57
  32  0.667  0.833  0.781-  14 1.54  15 1.54  16 1.54   8 1.57

  LATTYP: Found a hexagonal cell.
 ALAT       =     5.0261875737
 C/A-ratio  =     1.6638463800

  Lattice vectors:

 A1 = (   5.0261880000,   0.0000000000,   0.0000000000)
 A2 = (  -2.5130940000,   4.3528060000,   0.0000000000)
 A3 = (   0.0000000000,   0.0000000000,   8.3628040000)

Analysis of symmetry for initial positions (statically):
 Subroutine PRICEL returns following result:

[...]

   8 primitive cells build up your supercell.

 Routine SETGRP: Setting up the symmetry group for a
 hexagonal supercell.

 Subroutine GETGRP returns: Found 24 space group operations
 (whereof 12 operations were pure point group operations)
 out of a pool of 24 trial point group operations.

The static configuration has the point symmetry D_3d.
 The point group associated with its full space group is D_6h.

Analysis of symmetry for dynamics (positions and initial velocities):
 Subroutine PRICEL returns following result:

[...]

The dynamic configuration has the point symmetry D_3d.
 The point group associated with its full space group is D_6h.

Analysis of structural, dynamic, and magnetic symmetry:
 Subroutine PRICEL returns following result:

[...]

The magnetic configuration has the point symmetry D_3d.
 The point group associated with its full space group is D_6h.

 Subroutine INISYM returns: Found 24 space group operations
 (whereof 12 operations are pure point group operations),
 and found     8 'primitive' translations

 KPOINTS: kpt_density=500

Automatic generation of k-mesh.
Space group operators:
 irot       det(A)        alpha          n_x          n_y          n_z        tau_x        tau_y        tau_z
    1     1.000000     0.000000     1.000000     0.000000     0.000000     0.000000     0.000000     0.000000
    2    -1.000000     0.000000     1.000000     0.000000     0.000000     0.000000     0.000000     0.000000
    3     1.000000   120.000000     0.000000     0.000000    -1.000000     0.000000     0.000000     0.000000
    4    -1.000000   120.000000     0.000000     0.000000    -1.000000     0.000000     0.000000     0.000000
    5     1.000000   120.000000     0.000000     0.000000     1.000000     0.000000     0.000000     0.000000
    6    -1.000000   120.000000     0.000000     0.000000     1.000000     0.000000     0.000000     0.000000
    7     1.000000   180.000000     1.000000     0.000000     0.000000     0.000000     0.000000     0.000000
    8    -1.000000   180.000000     1.000000     0.000000     0.000000     0.000000     0.000000     0.000000
    9     1.000000   180.000000     0.500000    -0.866025     0.000000     0.000000     0.000000     0.000000
   10    -1.000000   180.000000     0.500000    -0.866025     0.000000     0.000000     0.000000     0.000000
   11     1.000000   180.000000    -0.500000    -0.866025     0.000000     0.000000     0.000000     0.000000
   12    -1.000000   180.000000    -0.500000    -0.866025     0.000000     0.000000     0.000000     0.000000
   13     1.000000    60.000000     0.000000     0.000000    -1.000000     0.000000     0.000000     0.250000
   14    -1.000000    60.000000     0.000000    -0.000000    -1.000000     0.000000     0.000000     0.250000
   15     1.000000   180.000000     0.000000     0.000000     1.000000     0.000000     0.000000     0.250000
   16    -1.000000   180.000000     0.000000     0.000000     1.000000     0.000000     0.000000     0.250000
   17     1.000000    60.000000     0.000000     0.000000     1.000000     0.000000     0.000001     0.250000
   18    -1.000000    60.000000     0.000000     0.000000     1.000000     0.000000     0.000001     0.250000
   19     1.000000   180.000000     0.866025    -0.500000     0.000000     0.000000     0.000000     0.250000
   20    -1.000000   180.000000     0.866025    -0.500000     0.000000     0.000000     0.000000     0.250000
   21     1.000000   180.000000     0.000000     1.000000     0.000000     0.000000     0.000000     0.250000
   22    -1.000000   180.000000     0.000000     1.000000     0.000000     0.000000     0.000000     0.250000
   23     1.000000   180.000000     0.866025     0.500000     0.000000     0.000000     0.000001     0.250000
   24    -1.000000   180.000000     0.866025     0.500000     0.000000     0.000000     0.000001     0.250000

 Subroutine IBZKPT returns following result:

 Found      4 irreducible k-points:

 Following reciprocal coordinates:
            Coordinates               Weight
  0.000000  0.000000  0.000000      1.000000
  0.500000  0.000000  0.000000      3.000000
  0.000000  0.000000  0.500000      1.000000
  0.500000  0.000000  0.500000      3.000000

 Following cartesian coordinates:
            Coordinates               Weight
  0.000000  0.000000  0.000000      1.000000
  0.099479  0.057434  0.000000      3.000000
  0.000000  0.000000  0.059789      1.000000
  0.099479  0.057434  0.059789      3.000000

 TETIRR: Found     10 inequivalent tetrahedra from       48

 Subroutine IBZKPT_HF returns following result:

 Found      8 k-points in 1st BZ
 the following      8 k-points will be used (e.g. in the exchange kernel)
 Following reciprocal coordinates:   # in IRBZ
  0.000000  0.000000  0.000000    0.12500000   1 t-inv F
  0.500000  0.000000  0.000000    0.12500000   2 t-inv F
  0.000000  0.000000  0.500000    0.12500000   3 t-inv F
  0.500000  0.000000  0.500000    0.12500000   4 t-inv F
 -0.500000  0.500000  0.000000    0.12500000   2 t-inv F
  0.000000 -0.500000  0.000000    0.12500000   2 t-inv F
 -0.500000  0.500000  0.500000    0.12500000   4 t-inv F
  0.000000 -0.500000  0.500000    0.12500000   4 t-inv F

 SYSTEM =  unknown system
 POSCAR =  generated by phonopy

 Startparameter for this run:
   NWRITE =      0    write-flag & timer
   PREC   = accura    normal or accurate (medium, high low for compatibility)
   ISTART =      0    job   : 0-new  1-cont  2-samecut
   ICHARG =      0    charge: 1-file 2-atom 10-const
   ISPIN  =      2    spin polarized calculation?
   LNONCOLLINEAR =      F non collinear calculations
   LSORBIT =      F    spin-orbit coupling
   INIWAV =      1    electr: 0-lowe 1-rand  2-diag
   LASPH  =      F    aspherical Exc in radial PAW
   METAGGA=      F    non-selfconsistent MetaGGA calc.

 Electronic Relaxation 1
   ENCUT  =  400.0 eV  29.40 Ry    5.42 a.u.   8.20  8.20 13.64*2*pi/ulx,y,z
   ENINI  =  400.0     initial cutoff
   ENAUG  =  644.9 eV  augmentation charge cutoff
   NELM   =     60;   NELMIN=  2; NELMDL= -5     # of ELM steps
   EDIFF  = 0.1E-05   stopping-criterion for ELM
   LREAL  =      F    real-space projection
   NLSPLINE    = F    spline interpolate recip. space projectors
   LCOMPAT=      F    compatible to vasp.4.4
   GGA_COMPAT  = T    GGA compatible to vasp.4.4-vasp.4.6
   LMAXPAW     = -100 max onsite density
   LMAXMIX     =    2 max onsite mixed and CHGCAR
   VOSKOWN=      0    Vosko Wilk Nusair interpolation
   ROPT   =    0.00000
 Ionic relaxation
   EDIFFG = 0.1E-03   stopping-criterion for IOM
   NSW    =      1    number of steps for IOM
   NBLOCK =      1;   KBLOCK =      1    inner block; outer block
   IBRION =      8    ionic relax: 0-MD 1-quasi-New 2-CG
   NFREE  =      0    steps in history (QN), initial steepest desc. (CG)
   ISIF   =      3    stress and relaxation
   IWAVPR =     11    prediction:  0-non 1-charg 2-wave 3-comb
   ISYM   =      2    0-nonsym 1-usesym 2-fastsym
   LCORR  =      T    Harris-Foulkes like correction to forces

   POTIM  = 0.0150    time-step for ionic-motion
   TEIN   =    0.0    initial temperature
   TEBEG  =    0.0;   TEEND  =   0.0 temperature during run
   SMASS  =  -3.00    Nose mass-parameter (am)
   estimated Nose-frequenzy (Omega)   =  0.10E-29 period in steps =****** mass=  -0.577E-27a.u.
   SCALEE = 1.0000    scale energy and forces
   NPACO  =    256;   APACO  = 16.0  distance and # of slots for P.C.
   PSTRESS=  750.0 pullay stress

  Mass of Ions in am
   POMASS =  12.01
  Ionic Valenz
   ZVAL   =   4.00
  Atomic Wigner-Seitz radii
  virtual crystal weights
   VCA    =   1.00
   NELECT =     128.0000    total number of electrons
   NUPDOWN=      -1.0000    fix difference up-down

 DOS related values:
   EMIN   =  10.00;   EMAX   =-10.00  energy-range for DOS
   EFERMI =   0.00
   ISMEAR =    -5;   SIGMA  =   0.01  broadening in eV -4-tet -1-fermi 0-gaus

 Electronic relaxation 2 (details)
   IALGO  =     68    algorithm
   LDIAG  =      T    sub-space diagonalisation (order eigenvalues)
   LSUBROT=      F    optimize rotation matrix (better conditioning)
   TURBO    =      0    0=normal 1=particle mesh
   IRESTART =      0    0=no restart 2=restart with 2 vectors
   NREBOOT  =      0    no. of reboots
[...]
 30Y     0.000000    0.052657   -0.184897   -0.000000   -0.239149   -0.000000    0.039972    0.121891    0.092448   -0.039972    0.121891    0.092448   -0.000000   -0.123094    0.041465    0.000000    6.822301   -0.000000   -0.068413   -0.241589   -0.020733    0.068413   -0.241589   -0.020733    0.244973    0.049560    0.009098   -0.244973    0.049560    0.009098   -0.000000    0.011564    0.000000    0.000000    0.473867   -0.018197    3.021744    9.055534    1.206495   -3.021744    9.055534    1.206495   -0.000000   -0.636679   -0.000000    0.000000   14.289348   -2.412989   -0.108376    0.012229   -1.343658    0.108376    0.012229   -1.343658    0.000000   -0.009328   -0.000000   -0.000000   -0.175482    2.687316   -0.108050    0.011832    0.577067    0.108050    0.011832    0.577067   -0.000000   -0.009839    0.000000   -0.000000   -0.175317   -1.154135    0.000000    0.072957   -0.082031    0.000000    0.108851    0.000000   -0.086755   -0.077307    0.041016    0.086755   -0.077307    0.041016   -0.000000   -2.207427   -1.324407   -0.000000  -44.529351    0.000000    3.702165    4.204910    0.662203   -3.702165    4.204910    0.662203
 30Z     0.000000    0.186324    0.508575    0.000000    0.000000    0.064743    0.161361   -0.093162    0.508575   -0.161361   -0.093162    0.508575   -0.000000   -0.040792   -0.078772    0.000000    0.000000   11.331879   -0.035327    0.020396   -0.078772    0.035327    0.020396   -0.078772    0.015050    0.008689   -0.170260   -0.015050    0.008689   -0.170260    0.000000   -0.000000    0.108241   -0.000000   -0.017378   -0.170260    2.087080    1.204976    7.699626   -2.087080    1.204976    7.699626    0.000000    0.000000   -0.011715   -0.000000   -2.409952    7.699626   -0.998271   -0.576352    1.800150    0.998271   -0.576352    1.800150   -0.000000    0.000000    0.147073    0.000000    1.152704    1.800150    2.326798    1.343377    1.798381   -2.326798    1.343377    1.798381    0.000000   -0.000000    0.146941   -0.000000   -2.686754    1.798381   -0.000000   -0.082057    0.067520   -0.000000   -0.000000   -0.015004   -0.071063    0.041028    0.067520    0.071063    0.041028    0.067520   -0.000000   -1.324136   -1.264107    0.000000   -0.000000  -42.855497   -1.146736    0.662068   -1.264107    1.146736    0.662068   -1.264107
 31X     0.075735   -0.039972    0.160125    0.075735    0.039972   -0.160125   -0.239149   -0.000000   -0.000000    0.144969    0.000000   -0.000000   -0.162592    0.068413   -0.035910   -0.162592   -0.068413    0.035910    6.822302    0.000000   -0.000000   -0.281088   -0.000000    0.000000   -0.091875    0.000000   -0.000000    0.011564    0.000000   -0.000000    0.332431   -0.244973   -0.015759    0.332431    0.244973    0.015759    7.310931    0.000000   -0.000000   -0.636679   -0.000000   -0.000000   12.544746   -3.021744   -2.089710   12.544746    3.021744    2.089710    0.074800   -0.000000    0.000000   -0.009328    0.000000    0.000000   -0.112912    0.108376    2.327284   -0.112912   -0.108376   -2.327284    0.074215   -0.000000   -0.000000   -0.009839   -0.000000    0.000000   -0.112934    0.108050   -0.999510   -0.112934   -0.108050    0.999510    0.022869    0.086755    0.071041    0.022869   -0.086755   -0.071041    0.108851    0.000000    0.000000   -0.127395    0.000000   -0.000000   -0.069981   -3.702165    1.146970   -0.069981    3.702165   -1.146970  -44.529362   -0.000000   -0.000000    6.342358   -0.000000   -0.000000
 31Y    -0.039972    0.121891    0.092448    0.039972    0.121891    0.092448   -0.000000   -0.239149   -0.000000    0.000000    0.052657   -0.184897    0.068413   -0.241589   -0.020733   -0.068413   -0.241589   -0.020733    0.000000    6.822301   -0.000000   -0.000000   -0.123094    0.041465    0.000000    0.473867   -0.018197   -0.000000    0.011564    0.000000   -0.244973    0.049560    0.009098    0.244973    0.049560    0.009098    0.000000   14.289348   -2.412989   -0.000000   -0.636679   -0.000000   -3.021744    9.055534    1.206495    3.021744    9.055534    1.206495   -0.000000   -0.175482    2.687316    0.000000   -0.009328   -0.000000    0.108376    0.012229   -1.343658   -0.108376    0.012229   -1.343658   -0.000000   -0.175317   -1.154135   -0.000000   -0.009839    0.000000    0.108050    0.011832    0.577067   -0.108050    0.011832    0.577067    0.086755   -0.077307    0.041016   -0.086755   -0.077307    0.041016    0.000000    0.108851    0.000000    0.000000    0.072957   -0.082031   -3.702165    4.204910    0.662203    3.702165    4.204910    0.662203   -0.000000  -44.529351    0.000000   -0.000000   -2.207427   -1.324407
 31Z    -0.161361   -0.093162    0.508575    0.161361   -0.093162    0.508575    0.000000    0.000000    0.064743    0.000000    0.186324    0.508575    0.035327    0.020396   -0.078772   -0.035327    0.020396   -0.078772    0.000000    0.000000   11.331879   -0.000000   -0.040792   -0.078772   -0.000000   -0.017378   -0.170260    0.000000   -0.000000    0.108241   -0.015050    0.008689   -0.170260    0.015050    0.008689   -0.170260   -0.000000   -2.409952    7.699626    0.000000    0.000000   -0.011715   -2.087080    1.204976    7.699626    2.087080    1.204976    7.699626    0.000000    1.152704    1.800150   -0.000000    0.000000    0.147073    0.998271   -0.576352    1.800150   -0.998271   -0.576352    1.800150   -0.000000   -2.686754    1.798381    0.000000   -0.000000    0.146941   -2.326798    1.343377    1.798381    2.326798    1.343377    1.798381    0.071063    0.041028    0.067520   -0.071063    0.041028    0.067520   -0.000000   -0.000000   -0.015004   -0.000000   -0.082057    0.067520    1.146736    0.662068   -1.264107   -1.146736    0.662068   -1.264107    0.000000   -0.000000  -42.855497   -0.000000   -1.324136   -1.264107
 32X     0.075735    0.039972   -0.160125    0.075735   -0.039972    0.160125    0.144969    0.000000   -0.000000   -0.239149   -0.000000   -0.000000   -0.162592   -0.068413    0.035910   -0.162592    0.068413   -0.035910   -0.281088   -0.000000    0.000000    6.822302    0.000000   -0.000000    0.011564    0.000000   -0.000000   -0.091875    0.000000   -0.000000    0.332431    0.244973    0.015759    0.332431   -0.244973   -0.015759   -0.636679   -0.000000   -0.000000    7.310931    0.000000   -0.000000   12.544746    3.021744    2.089710   12.544746   -3.021744   -2.089710   -0.009328    0.000000    0.000000    0.074800   -0.000000    0.000000   -0.112912   -0.108376   -2.327284   -0.112912    0.108376    2.327284   -0.009839   -0.000000    0.000000    0.074215   -0.000000   -0.000000   -0.112934   -0.108050    0.999510   -0.112934    0.108050   -0.999510    0.022869   -0.086755   -0.071041    0.022869    0.086755    0.071041   -0.127395    0.000000   -0.000000    0.108851    0.000000    0.000000   -0.069981    3.702165   -1.146970   -0.069981   -3.702165    1.146970    6.342358   -0.000000   -0.000000  -44.529362   -0.000000   -0.000000
 32Y     0.039972    0.121891    0.092448   -0.039972    0.121891    0.092448    0.000000    0.052657   -0.184897   -0.000000   -0.239149   -0.000000   -0.068413   -0.241589   -0.020733    0.068413   -0.241589   -0.020733   -0.000000   -0.123094    0.041465    0.000000    6.822301   -0.000000   -0.000000    0.011564    0.000000    0.000000    0.473867   -0.018197    0.244973    0.049560    0.009098   -0.244973    0.049560    0.009098   -0.000000   -0.636679   -0.000000    0.000000   14.289348   -2.412989    3.021744    9.055534    1.206495   -3.021744    9.055534    1.206495    0.000000   -0.009328   -0.000000   -0.000000   -0.175482    2.687316   -0.108376    0.012229   -1.343658    0.108376    0.012229   -1.343658   -0.000000   -0.009839    0.000000   -0.000000   -0.175317   -1.154135   -0.108050    0.011832    0.577067    0.108050    0.011832    0.577067   -0.086755   -0.077307    0.041016    0.086755   -0.077307    0.041016    0.000000    0.072957   -0.082031    0.000000    0.108851    0.000000    3.702165    4.204910    0.662203   -3.702165    4.204910    0.662203   -0.000000   -2.207427   -1.324407   -0.000000  -44.529351    0.000000
 32Z     0.161361   -0.093162    0.508575   -0.161361   -0.093162    0.508575    0.000000    0.186324    0.508575    0.000000    0.000000    0.064743   -0.035327    0.020396   -0.078772    0.035327    0.020396   -0.078772   -0.000000   -0.040792   -0.078772    0.000000    0.000000   11.331879    0.000000   -0.000000    0.108241   -0.000000   -0.017378   -0.170260    0.015050    0.008689   -0.170260   -0.015050    0.008689   -0.170260    0.000000    0.000000   -0.011715   -0.000000   -2.409952    7.699626    2.087080    1.204976    7.699626   -2.087080    1.204976    7.699626   -0.000000    0.000000    0.147073    0.000000    1.152704    1.800150   -0.998271   -0.576352    1.800150    0.998271   -0.576352    1.800150    0.000000   -0.000000    0.146941   -0.000000   -2.686754    1.798381    2.326798    1.343377    1.798381   -2.326798    1.343377    1.798381   -0.071063    0.041028    0.067520    0.071063    0.041028    0.067520   -0.000000   -0.082057    0.067520   -0.000000   -0.000000   -0.015004   -1.146736    0.662068   -1.264107    1.146736    0.662068   -1.264107   -0.000000   -1.324136   -1.264107    0.000000   -0.000000  -42.855497

 Eigenvectors and eigenvalues of the dynamical matrix

   1 f  =   39.645268 THz   249.098566 2PiTHz 1322.423757 cm-1   163.959708 meV
             X         Y         Z           dx          dy          dz
     -0.000001  1.450936  3.918927    -0.176777   -0.000000   -0.000000
      2.513093  1.450936  3.918927    -0.176777   -0.000000   -0.000000
     -1.256548  3.627339  3.918927    -0.176777   -0.000000   -0.000000
      1.256546  3.627339  3.918927    -0.176777   -0.000000   -0.000000
     -0.000001  1.450936  8.100329    -0.176777   -0.000000   -0.000000
      2.513093  1.450936  8.100329    -0.176777   -0.000000    0.000000
     -1.256548  3.627339  8.100329    -0.176777   -0.000000    0.000000
      1.256546  3.627339  8.100329    -0.176777   -0.000000    0.000000
      1.256548  0.725467  1.828226    -0.176777   -0.000000   -0.000000
      3.769642  0.725467  1.828226    -0.176777   -0.000000    0.000000
      0.000001  2.901870  1.828226    -0.176777   -0.000000   -0.000000
      2.513095  2.901870  1.828226    -0.176777   -0.000000   -0.000000
      1.256548  0.725467  6.009628    -0.176777   -0.000000   -0.000000
      3.769642  0.725467  6.009628    -0.176777   -0.000000   -0.000000
      0.000001  2.901870  6.009628    -0.176777   -0.000000   -0.000000
      2.513095  2.901870  6.009628    -0.176777   -0.000000   -0.000000
      1.256548  0.725467  0.262475     0.176777    0.000000   -0.000000
      3.769642  0.725467  0.262475     0.176777    0.000000   -0.000000
      0.000001  2.901870  0.262475     0.176777    0.000000   -0.000000
      2.513095  2.901870  0.262475     0.176777    0.000000   -0.000000
      1.256548  0.725467  4.443877     0.176777    0.000000    0.000000
      3.769642  0.725467  4.443877     0.176777    0.000000    0.000000
      0.000001  2.901870  4.443877     0.176777    0.000000    0.000000
      2.513095  2.901870  4.443877     0.176777    0.000000   -0.000000
     -0.000001  1.450936  2.353176     0.176777    0.000000    0.000000
      2.513093  1.450936  2.353176     0.176777    0.000000    0.000000
     -1.256548  3.627339  2.353176     0.176777    0.000000    0.000000
      1.256546  3.627339  2.353176     0.176777    0.000000    0.000000
     -0.000001  1.450936  6.534578     0.176777    0.000000    0.000000
      2.513093  1.450936  6.534578     0.176777    0.000000   -0.000000
     -1.256548  3.627339  6.534578     0.176777    0.000000    0.000000
      1.256546  3.627339  6.534578     0.176777    0.000000   -0.000000

[...]

  96 f  =    0.000001 THz     0.000004 2PiTHz    0.000019 cm-1     0.000002 meV
             X         Y         Z           dx          dy          dz
     -0.000001  1.450936  3.918927     0.016928   -0.175959    0.001414
      2.513093  1.450936  3.918927     0.016928   -0.175959    0.001414
     -1.256548  3.627339  3.918927     0.016928   -0.175959    0.001414
      1.256546  3.627339  3.918927     0.016928   -0.175959    0.001414
     -0.000001  1.450936  8.100329     0.016928   -0.175959    0.001414
      2.513093  1.450936  8.100329     0.016928   -0.175959    0.001414
     -1.256548  3.627339  8.100329     0.016928   -0.175959    0.001414
      1.256546  3.627339  8.100329     0.016928   -0.175959    0.001414
      1.256548  0.725467  1.828226     0.016928   -0.175959    0.001414
      3.769642  0.725467  1.828226     0.016928   -0.175959    0.001414
      0.000001  2.901870  1.828226     0.016928   -0.175959    0.001414
      2.513095  2.901870  1.828226     0.016928   -0.175959    0.001414
      1.256548  0.725467  6.009628     0.016928   -0.175959    0.001414
      3.769642  0.725467  6.009628     0.016928   -0.175959    0.001414
      0.000001  2.901870  6.009628     0.016928   -0.175959    0.001414
      2.513095  2.901870  6.009628     0.016928   -0.175959    0.001414
      1.256548  0.725467  0.262475     0.016928   -0.175959    0.001414
      3.769642  0.725467  0.262475     0.016928   -0.175959    0.001414
      0.000001  2.901870  0.262475     0.016928   -0.175959    0.001414
      2.513095  2.901870  0.262475     0.016928   -0.175959    0.001414
      1.256548  0.725467  4.443877     0.016928   -0.175959    0.001414
      3.769642  0.725467  4.443877     0.016928   -0.175959    0.001414
      0.000001  2.901870  4.443877     0.016928   -0.175959    0.001414
      2.513095  2.901870  4.443877     0.016928   -0.175959    0.001414
     -0.000001  1.450936  2.353176     0.016928   -0.175959    0.001414
      2.513093  1.450936  2.353176     0.016928   -0.175959    0.001414
     -1.256548  3.627339  2.353176     0.016928   -0.175959    0.001414
      1.256546  3.627339  2.353176     0.016928   -0.175959    0.001414
     -0.000001  1.450936  6.534578     0.016928   -0.175959    0.001414
      2.513093  1.450936  6.534578     0.016928   -0.175959    0.001414
     -1.256548  3.627339  6.534578     0.016928   -0.175959    0.001414
      1.256546  3.627339  6.534578     0.016928   -0.175959    0.001414

 ELASTIC MODULI CONTR FROM IONIC RELAXATION (kBar)
 Direction    XX          YY          ZZ          XY          YZ          ZX
 XX         -74.7854     60.1570     -1.1109     -0.0000      0.0000      0.0000
 YY          60.1570    -74.7853     -1.1109      0.0000     -0.0000     -0.0000
 ZZ          -1.1109     -1.1109     -0.1687     -0.0000     -0.0000     -0.0000
 XY          -0.0000      0.0000     -0.0000    -67.4712     -0.0000      0.0000
 YZ           0.0000     -0.0000     -0.0000     -0.0000    -85.1894      0.0000
 ZX           0.0000     -0.0000     -0.0000      0.0000      0.0000    -85.1896

 total charge

[...]

 magnetization (x)

# of ion       s       p       d       tot
    1       -0.000   0.000   0.000   0.000
    2       -0.000   0.000   0.000   0.000
    3       -0.000   0.000   0.000   0.000
    4       -0.000   0.000   0.000   0.000
    5       -0.000   0.000   0.000   0.000
    6       -0.000   0.000   0.000   0.000
    7       -0.000   0.000   0.000   0.000
    8       -0.000   0.000   0.000   0.000
    9       -0.000   0.000   0.000   0.000
   10       -0.000   0.000   0.000   0.000
   11       -0.000   0.000   0.000   0.000
   12       -0.000   0.000   0.000   0.000
   13       -0.000   0.000   0.000   0.000
   14       -0.000   0.000   0.000   0.000
   15       -0.000   0.000   0.000   0.000
   16       -0.000   0.000   0.000   0.000
   17       -0.000   0.000   0.000   0.000
   18       -0.000   0.000   0.000   0.000
   19       -0.000   0.000   0.000   0.000
   20       -0.000   0.000   0.000   0.000
   21       -0.000   0.000   0.000   0.000
   22       -0.000   0.000   0.000   0.000
   23       -0.000   0.000   0.000   0.000
   24       -0.000   0.000   0.000   0.000
   25       -0.000   0.000   0.000   0.000
   26       -0.000   0.000   0.000   0.000
   27       -0.000   0.000   0.000   0.000
   28       -0.000   0.000   0.000   0.000
   29       -0.000   0.000   0.000   0.000
   30       -0.000   0.000   0.000   0.000
   31       -0.000   0.000   0.000   0.000
   32       -0.000   0.000   0.000   0.000
tot         -0.000   0.000   0.000   0.000

 BZINTS: Fermi energy:  9.995838;128.000000 electrons
         Band energy:  95.021295;  BLOECHL correction:  0.000000